LAMMPS data file via write_data, version 7 Feb 2024, timestep = 150000, units = lj

4876 atoms
24 atom types
964 bonds
603 bond types
151 angles
1 angle types
9 dihedrals
2 dihedral types

0 120 xlo xhi
0 72 ylo yhi
0 72 zlo zhi

Masses

1 72
2 72
3 72
4 54
5 36
6 54
7 36
8 54
9 54
10 54
11 54
12 72
13 54
14 54
15 36
16 36
17 36
18 54
19 54
20 36
21 72
22 36
23 36
24 72

Atoms # full

5788 0 24 0 7.797965215524703 4.061698883575792 2.761155493142045 0 1 0
4841 0 24 0 13.450425898595398 4.557475304428202 0.19640056618758242 0 9 1
5551 0 24 0 12.648810143758745 0.5194389375156037 2.6548141244874337 0 1 1
5483 0 24 0 15.329923185003384 3.6010005636711746 5.849707662396358 0 0 0
5209 0 24 0 20.80035804202372 5.794173734420551 5.5413336775551985 0 2 1
5344 0 24 0 18.172277665031675 3.4360068993087225 1.5385057722745825 0 1 0
4922 0 24 0 22.000579545495494 0.044753331721348634 3.992906295342241 0 6 0
5109 0 24 0 24.16808515161707 3.812007182205566 1.7257579672654815 0 4 0
2564 2214 24 0 26.668081913683032 0.5149789798304808 4.814768495601898 0 7 1
4471 0 24 0 30.48431549545552 2.941072172564259 3.7714857500339867 0 9 0
4977 0 24 0 36.0996032256845 2.5540110125631363 2.166911147495705 0 5 1
495 145 24 0 35.87018013350293 0.920054096551131 6.642053928959754 0 7 0
1247 897 24 0 44.766731581130514 1.4948805796756222 4.133859142735218 0 4 0
2109 1759 24 0 40.57110145844223 4.164045828415475 4.421293924912046 0 4 1
504 154 24 0 45.40229369491419 6.203570704880188 5.937888970578793 0 3 0
1366 1016 24 0 45.41748499325816 5.411495085031665 1.010284293462337 0 4 0
2900 2550 24 0 49.88573039985691 4.474814901655908 5.252818269316152 0 2 1
715 365 24 0 51.60096966835118 6.606696168491438 0.7763295151965699 0 3 0
1772 1422 24 0 54.34921834617256 1.4830269053868719 4.952117571588657 0 0 0
2183 1833 24 0 56.83864442845841 3.7693765901293643 0.174290186790432 0 3 1
1775 1425 24 0 55.21100639144682 6.247033347994936 5.25030144414444 0 0 0
1647 1297 24 0 59.22696173404389 3.09603376188559 4.8163569529709 0 0 0
6065 0 24 0 10.713601846587396 12.670704303422633 4.8993146511331656 0 0 1
5843 0 24 0 8.119446984916049 8.049403114566646 6.095410312256054 0 1 0
5370 0 24 0 13.020360008125872 9.26665953289071 2.5996150277886367 0 1 1
5822 0 24 0 15.812471710441839 13.349050578691825 4.134876513526048 0 0 1
5261 0 24 0 22.252126636039602 11.490118995088913 5.482361604914621 0 1 1
5205 0 24 0 17.491446359260717 8.137330359338629 1.6701868466227892 0 2 0
4005 0 24 0 20.036836770300667 12.835574366005899 1.2174661137352665 0 9 1
5634 0 24 0 26.865312417927292 7.597144812814268 5.004180283561813 0 1 0
5535 0 24 0 22.68214271645876 8.618960947155836 1.1419868389946948 0 1 1
3984 0 24 0 27.17755773363314 12.208760184993228 1.1321896371494813 0 9 1
4148 0 24 0 27.28051257726701 13.021616688974516 6.001031812399897 0 9 0
4607 0 24 0 36.69395306630396 7.8141922339416565 2.666561087192624 0 7 0
5061 0 24 0 31.871934431969894 7.627157961355171 3.4606213110321815 0 4 0
2827 2477 24 0 33.46741296037321 12.171586269579414 3.5643258227140215 0 6 1
1398 1048 24 0 38.64692261655497 12.323864688177558 4.517468379091459 0 5 0
2861 2511 24 0 44.048211256642986 10.889583796211346 5.31901593360783 0 5 1
552 202 24 0 42.18360510257393 13.932207250814109 1.5441971334684648 0 4 0
2180 1830 24 0 41.7666554055945 8.445702334396362 2.1018646942526593 0 3 1
1413 1063 24 0 48.70053142503202 9.345973630633232 3.908502953240716 0 5 0
1402 1052 24 0 48.57344230171419 13.742478599319684 5.639039039156683 0 3 0
2587 2237 24 0 53.43600529542348 11.140205301812466 4.680985121488142 0 3 1
2911 2561 24 0 58.83351972690457 10.045488051115369 7.115086830748327 0 0 1
1379 1029 24 0 57.56094961315706 8.70086307531275 1.2748317040152768 0 2 0
2635 2285 24 0 58.12331529738952 13.571361484729756 3.0007620497892376 0 2 1
5641 0 24 0 7.425227170197447 16.686709918117423 4.985833549024819 0 0 1
5609 0 24 0 7.416078298058085 19.883223599397514 0.22161146286363798 0 0 1
5643 0 24 0 8.339646961265823 14.436022682445868 0.16289497828420874 0 0 1
5482 0 24 0 12.381616186290994 16.976228922279738 2.453955173774497 0 0 0
5221 0 24 0 14.454754058363001 21.282363234085032 4.795317990262053 0 1 0
5833 0 24 0 20.220625768260867 21.58643056003512 1.3467592456951147 0 0 1
5378 0 24 0 18.932804081144504 17.233113674303357 5.443192247811795 0 0 1
4210 0 24 0 16.943748092717666 18.16012890469105 0.7924386039127975 0 9 0
686 336 24 0 23.429475360165316 20.279059764061213 5.3181882535617016 0 8 0
5685 0 24 0 23.133648407382438 16.41143906978256 2.506365006266054 0 0 0
651 301 24 0 28.243042293967452 17.51111772784177 3.8160420453876718 0 7 0
3338 0 24 0 25.852622319301044 20.888870457244014 0.5996168036261318 0 9 1
2037 1687 24 0 31.81512986923046 16.533891333412004 0.38757475371110695 0 6 1
1255 905 24 0 33.21547637827061 19.494859305628548 5.339560252924788 0 7 0
2118 1768 24 0 36.78668963748801 16.92973596362114 3.0490114663426082 0 5 1
2654 2304 24 0 30.699850219166883 21.465195326388884 0.0801666373936208 0 8 1
2636 2286 24 0 44.119417937538024 18.093480850070655 4.158793762860958 0 3 1
1836 1486 24 0 38.274466900611124 20.88987459650017 6.0323370885373215 0 4 1
2058 1708 24 0 40.96350334221282 19.186686557450546 0.8369786594104269 0 4 1
1381 1031 24 0 49.48962019325651 18.421965294858744 4.300649013959881 0 3 0
1235 885 24 0 47.208187043609016 20.424068084498295 0.31713074969281746 0 4 0
1427 1077 24 0 47.17353990297251 15.117779475989058 0.6490869804261206 0 5 0
2673 2323 24 0 54.1857002019488 16.87183679372923 1.9721608425086334 0 2 1
1654 1304 24 0 53.09787122409251 15.766349066184421 7.198485986841319 0 0 0
2830 2480 24 0 57.59033222628411 17.25656068895582 6.49031542720013 0 2 1
1889 1539 24 0 56.891771685231504 21.249020853455857 2.773382046776193 0 1 1
2585 2235 24 0 53.57776348576481 20.753711606334143 6.541007326458386 0 2 1
4319 0 24 0 6.796936476456536 26.989204873867934 5.697035275168151 0 9 1
1333 983 24 0 6.704748097926649 27.6464135336668 0.5658892625858375 0 8 0
5897 0 24 0 11.823573658287412 26.07670251871384 2.620695537556109 0 0 1
5949 0 24 0 9.448759633710111 22.154877100168513 5.788411583897032 0 0 0
4366 0 24 0 16.883956500580013 25.182361153621247 2.2972663231759047 0 9 1
4088 0 24 0 18.888022218750965 22.115688844350686 6.365965293380681 0 9 1
5203 0 24 0 19.238129230717075 27.43885191725718 6.828612246390027 0 1 0
5250 0 24 0 22.021961887756145 26.593995649358494 2.1503866442262654 0 1 1
404 54 24 0 27.62906336791863 25.39223924556012 0.7261716844579229 0 7 0
4066 0 24 0 28.558948968427018 22.06952899380629 5.283845565710846 0 9 1
1821 1471 24 0 29.047586267432187 27.2718530513295 4.888055004834167 0 7 1
5196 0 24 0 24.360312450477892 24.92342970202278 6.462446725139082 0 2 0
2732 2382 24 0 33.57096725236937 24.35828803358685 3.1212012359956667 0 7 1
1899 1549 24 0 36.48953985483007 28.321889111490815 1.3904496220757827 0 4 1
1896 1546 24 0 33.51027998405137 28.75579132216146 6.785481822648593 0 6 1
2872 2522 24 0 38.60943311874999 23.910005410477634 1.9768923622638968 0 7 1
1194 844 24 0 39.14513213051441 27.043663967923045 5.852797483579218 0 5 0
2170 1820 24 0 43.161935767126636 23.137338905990187 4.645539459642354 0 4 1
598 248 24 0 43.996017725499705 28.059162996805046 4.97413562892687 0 4 0
2742 2392 24 0 48.06761118440933 23.095937657207667 5.665541244802615 0 3 1
2675 2325 24 0 52.07072215522927 22.917394432749727 2.0309161387673997 0 4 1
642 292 24 0 51.18893775957827 27.507009129759524 4.495439769441793 0 1 0
2001 1651 24 0 47.523986634691944 25.559331696612915 1.1780323095181335 0 2 1
2871 2521 24 0 55.62819456330449 26.602245097540973 1.4267614320812634 0 2 1
911 561 24 0 59.603754409469914 28.373743142022256 6.139434991457653 0 0 0
5327 0 24 0 12.389591374578982 33.008753535733355 2.2739972082673834 0 0 0
5448 0 24 0 14.844352085962758 34.535585486631035 6.974466404619577 0 0 0
6077 0 24 0 15.398203038692287 29.474323776303116 4.6057049968253265 0 0 0
5824 0 24 0 19.28709975286319 31.207410223247535 1.686505815252529 0 0 0
5552 0 24 0 17.425427185787743 35.711466762343946 2.3022924614367892 0 0 0
4205 0 24 0 24.12192883236736 30.773215620966095 4.52772456773539 0 8 0
4463 0 24 0 28.004156815966308 31.34658980660148 1.4745621012305803 0 9 0
1314 964 24 0 30.148194542232233 32.551442863197124 6.405763002093939 0 6 0
5014 0 24 0 33.00974264787574 31.57497264395828 2.0934614998780345 0 4 1
374 24 24 0 37.004700612709634 32.055783579717655 5.189560647229633 0 5 0
386 36 24 0 41.098204294884 31.215488590727603 3.0528822517617 0 4 0
1266 916 24 0 44.709881225587935 33.16810216117599 6.1647661190034455 0 5 0
571 221 24 0 51.63120290743368 33.29370332944033 0.7740188190237808 0 0 0
1892 1542 24 0 47.2993334983458 31.00619464514158 2.2336441449284252 0 4 1
450 100 24 0 49.70331592526828 31.811560932083708 6.853992798370993 0 3 0
600 250 24 0 47.274236445187235 35.496755695015054 0.3603916413710598 0 3 0
1121 771 24 0 54.8262063992749 31.017844893368057 5.0505109989652714 0 0 0
915 565 24 0 58.79659815664742 34.02556231328632 2.5517852755006616 0 0 0
5741 0 24 0 7.083922703385121 4.074143765636118 9.320386751705527 0 1 1
5898 0 24 0 10.883602717329426 1.7307879939095423 7.47552097123705 0 1 0
5845 0 24 0 8.339243274488812 3.1558192131092033 13.938359695088566 0 1 0
5650 0 24 0 12.611055594475362 6.204391204248104 9.96613898614055 0 1 0
6033 0 24 0 14.971395032137497 1.6263252379358946 11.011089402772022 0 1 0
5954 0 24 0 18.7249757330234 0.35732457623713887 7.6736492848854 0 1 0
5972 0 24 0 19.076282132733567 5.3576574081138375 10.053485376201598 0 1 0
4704 0 24 0 20.640011785989753 1.0412582549278406 12.831274683615526 0 9 0
3477 0 24 0 23.83620134194532 2.5909828682943705 8.372014519050193 0 8 0
699 349 24 0 29.528506855232607 5.020512190852832 8.855024560525194 0 7 0
1331 981 24 0 29.004036826884487 2.869203167670299 13.953750462275913 0 5 0
464 114 24 0 27.99540753958329 0.24312596529249858 9.58318666164255 0 7 0
5101 0 24 0 34.07959617888428 5.634549804343601 7.4233343285836 0 3 0
1132 782 24 0 32.81408357233898 1.4161366525196493 11.515069243376661 0 5 0
4901 0 24 0 32.58383070585575 6.361833062394843 12.385396861880865 0 8 0
1144 794 24 0 37.9387006970926 4.3584283626516145 10.628708837271379 0 4 0
1189 839 24 0 40.7263626810479 0.7330913799485816 8.40096563291675 0 4 0
631 281 24 0 42.35528141244948 2.3806338389324266 13.507497088351004 0 3 0
734 384 24 0 42.79041858457745 6.810441271895349 10.592022291507126 0 2 0
476 126 24 0 45.88020518738515 2.2855902653072047 8.701574677878503 0 3 0
382 32 24 0 47.77552900242393 5.69045532728609 11.46037570846315 0 2 0
2000 1650 24 0 52.06009489187013 4.1373344532650735 12.674849808236804 0 3 1
713 363 24 0 51.247888877999806 0.93078802615788 8.882273859003986 0 4 0
3186 2836 24 0 55.89500614727719 2.7553313216231627 9.69366131830155 0 0 1
5369 0 24 0 6.600556884464889 9.806523405604688 10.390708720318749 0 0 0
5853 0 24 0 11.438933203361522 11.720068650766821 10.228976158080918 0 1 0
534 184 24 0 16.297473171248203 8.937170720166327 7.495928383965097 0 7 0
5848 0 24 0 16.70479585926553 8.806621580992083 12.767756610147933 0 0 0
394 44 24 0 20.139810513070096 11.200578066769758 10.178496083484639 0 9 0
5906 0 24 0 15.454654674055803 13.818889545986611 8.889011711351413 0 0 1
4924 0 24 0 23.837675491195533 7.720687689794618 9.395316355854355 0 5 0
4391 0 24 0 25.269961045336856 13.702188637493599 11.79724446240943 0 9 0
633 283 24 0 27.730918433974775 8.87399946330805 12.431541268144985 0 7 0
1358 1008 24 0 30.952267339133183 9.874762620213442 8.57655927720777 0 7 0
3319 0 24 0 31.3872675509729 12.067322246351155 13.558746134698985 0 8 0
1420 1070 24 0 36.260738376660306 10.462345807470605 10.39385760855377 0 7 0
659 309 24 0 38.826996198067995 7.98032200161951 7.274294208000816 0 4 0
426 76 24 0 41.52946364648079 11.226596131887272 9.385411231353135 0 5 0
1169 819 24 0 43.27967778001044 13.670298010840652 13.635802763522289 0 4 0
1421 1071 24 0 40.32877472601384 9.402952826660853 13.932403526552877 0 4 0
678 328 24 0 51.560092685153734 8.856454410787828 8.39352162760186 0 1 0
1321 971 24 0 46.3857494160331 10.703130953851185 9.727554945390551 0 3 0
1207 857 24 0 50.775303272902526 9.102798990046336 13.18544219955946 0 4 0
2719 2369 24 0 50.114780756920354 13.756390852102209 10.725432022796658 0 3 1
1034 684 24 0 55.974336683454574 7.52873148843959 10.149157089067959 0 -2 0
1725 1375 24 0 55.28234856460058 12.706914708513604 10.285782010852285 0 0 0
6145 0 24 0 6.6583570734466875 17.318684782098753 9.928272374877178 0 0 1
4910 0 24 0 11.303422051024887 16.756964978587057 12.85210519061626 0 9 0
2119 1769 24 0 11.912884441848874 17.476232306670724 7.727176164093422 0 8 1
5536 0 24 0 17.631122084461257 15.378394866944074 13.50393397539296 0 1 0
4155 0 24 0 21.681196588467543 16.46907866176467 10.191272054200185 0 9 0
5581 0 24 0 16.26749706540291 18.778382227858614 9.600981988489247 0 0 0
5522 0 24 0 26.44698893059813 18.52856422326168 8.938349233159762 0 0 0
548 198 24 0 29.34201674178805 16.970429402159077 13.426275515015504 0 8 0
1400 1050 24 0 35.701476310825484 14.721124130260002 7.639931295816506 0 4 0
632 282 24 0 31.079855327732794 20.447278545194035 9.894780297661493 0 4 0
6085 0 24 0 30.784319562134257 15.065139286097105 8.79140135214059 0 0 0
433 83 24 0 36.452659335589296 19.007964166170606 10.526789622053705 0 6 0
1246 896 24 0 34.16249932949656 16.410127524025032 14.17566768069537 0 5 0
614 264 24 0 40.688610312333246 15.866965479895676 7.414782135341732 0 4 0
1269 919 24 0 38.716499802911805 14.64709671494584 12.937669377802838 0 5 0
692 342 24 0 42.55725869414796 19.14144677710604 13.143972219188718 0 7 0
641 291 24 0 44.616403082463314 20.408388393392922 8.524642466188368 0 4 0
1108 758 24 0 45.21996538065988 15.470294900913323 9.284428513344889 0 5 0
2049 1699 24 0 47.19498942056537 17.093447359649318 13.471063082676315 0 5 1
530 180 24 0 49.223328102527475 19.61864228912072 9.504339376823387 0 1 0
1212 862 24 0 59.9481587167273 19.182663531838916 11.19733592683321 0 1 0
539 189 24 0 54.78895623242594 18.910932940470538 10.94683472006422 0 2 0
1172 822 24 0 58.52024779709216 15.209438011461156 13.144467736888181 0 1 0
3714 0 24 0 7.156236051715155 22.548281308994454 11.5326933590398 0 9 1
5506 0 24 0 5.863668580632189 28.782191492895553 13.921692358828238 0 0 0
5705 0 24 0 12.052210060989234 21.828399214252773 11.247682385626995 0 0 0
5909 0 24 0 14.710131810034548 25.67673992214749 8.596711167370183 0 0 0
5861 0 24 0 9.534818016034881 26.656705844848226 10.147655270722861 0 0 0
5715 0 24 0 13.671634743330134 27.244199593682644 13.903612478350922 0 0 0
1264 914 24 0 22.172598294008246 22.069329998808122 10.51017275034928 0 9 0
5782 0 24 0 18.05438476046586 25.019113642911158 11.984819136641296 0 0 0
3334 0 24 0 27.836020744900623 21.761189827580672 13.380522400814357 0 8 0
5412 0 24 0 34.98582998631804 23.45831730275146 8.291525600417227 0 0 1
2781 2431 24 0 32.054900474132 26.439659161754594 11.083321230738273 0 7 1
1163 813 24 0 36.130493598328925 24.62745719762235 13.781098181531668 0 5 0
656 306 24 0 36.9971336609985 28.11714096305321 10.199440487757462 0 4 0
5393 0 24 0 39.39752935575901 23.06102031533266 10.220688524289626 0 0 0
1390 1040 24 0 42.75348332559843 26.736370695014394 9.947224335462085 0 5 0
1168 818 24 0 46.57619968463503 23.55627024432137 11.971160715048832 0 5 0
2906 2556 24 0 52.23950900742406 23.648032507491777 11.066051225654578 0 3 1
722 372 24 0 47.779484001283016 27.17287822409011 8.521268372268251 0 5 0
617 267 24 0 45.8717146960008 28.351459750741313 14.149148563795059 0 4 0
1410 1060 24 0 59.595976620721295 27.546546971188043 11.19117003661708 0 0 0
484 134 24 0 56.505732392278816 24.723729686053918 7.3613714645540265 0 1 0
1334 984 24 0 57.155541256948 23.621650111427474 12.165382412429766 0 1 0
1145 795 24 0 53.275022375159544 28.13535132253023 9.428925049028157 0 1 0
5918 0 24 0 6.184384679458733 30.730679293822273 9.123832843694535 0 0 0
5728 0 24 0 5.6764301920133 34.062830855744465 12.40503398724554 0 0 1
5521 0 24 0 11.431336522761816 30.88984433692532 7.212512644473283 0 0 0
1383 1033 24 0 10.219294449680852 31.63383532166623 12.160306622577103 0 8 0
5896 0 24 0 9.279021995484042 35.13393514443676 8.477637054958027 0 0 0
3990 0 24 0 15.183569928925197 34.76298800234344 12.424164610762464 0 9 0
5268 0 24 0 21.724830898695565 29.01867886629977 10.93804851865769 0 1 0
5624 0 24 0 16.11883356257006 30.06666522092779 10.600036292045015 0 0 0
3327 0 24 0 19.99841810481862 32.620069038705736 8.14573964013855 0 9 1
4431 0 24 0 21.431101781326724 33.41376031609963 13.972844509122302 0 9 0
1233 883 24 0 27.154511311485575 29.043544979177078 9.171084987593723 0 5 0
4721 0 24 0 25.44386203411927 34.81305398154333 7.7634320111818385 0 7 0
1416 1066 24 0 27.095484687191487 33.919396013793374 13.346323802457563 0 8 0
3986 0 24 0 30.6884059600055 30.77087755281504 12.180359758775204 0 9 0
5142 0 24 0 34.0291421693618 33.06082207613587 9.276636492371276 0 3 0
427 77 24 0 36.51591267583234 35.31059148712287 13.145488016402009 0 5 0
674 324 24 0 31.841181955193605 35.2779497055983 14.14545097527123 0 7 0
1422 1072 24 0 41.12702886440768 31.01012229708254 8.295642194191208 0 7 0
1999 1649 24 0 38.63315365765418 35.48671917269911 8.091419956901424 0 6 1
457 107 24 0 41.980108131177865 33.98496901821188 12.826264587672265 0 5 0
442 92 24 0 46.19020718979568 32.384094125984106 10.80745961619736 0 5 0
461 111 24 0 51.04189209599291 31.510575536853995 12.456028663835507 0 4 0
1773 1423 24 0 57.158702423966666 31.767011498595302 12.15139464846533 0 0 0
1440 1090 24 0 54.05496196171594 33.52874869548518 8.963953186175962 0 0 0
1113 763 24 0 59.30183317274804 32.96063057125285 7.682242064539973 0 0 0
1196 846 24 0 59.72442952533035 35.89580615066045 12.603720876149698 0 0 0
5585 0 24 0 6.516884699090725 4.550060307512898 19.67528117753459 0 1 0
6113 0 24 0 13.048298348482305 5.162069583927029 14.653472194853352 0 0 0
5331 0 24 0 11.553516662734214 3.1735664984819536 19.397841529274533 0 1 0
5545 0 24 0 13.378583909561238 0.00804427084209009 15.616708607109366 0 1 0
5459 0 24 0 17.97781571623695 4.424737188648917 14.821865109517349 0 1 0
5711 0 24 0 16.57760252982674 2.527814247871519 20.553117990744514 0 1 0
3574 0 24 0 20.685125767125925 6.776484962912028 18.391041970280323 0 8 0
4656 0 24 0 15.67922988211532 6.7991097482653835 18.620035826250948 0 9 0
4918 0 24 0 21.152087026074156 0.3854947131660257 17.78897698243998 0 6 0
4215 0 24 0 23.915894129220757 4.7826411101293465 14.609727648456717 0 9 0
732 382 24 0 25.87953293006826 1.6570536333975932 18.95525242373111 0 7 0
688 338 24 0 30.277646994762513 4.023895172489422 20.902728502805466 0 5 0
1234 884 24 0 33.67815303015176 3.994455849921865 16.641459610699982 0 4 0
410 60 24 0 37.244874766079164 5.152923313593935 20.333921995567728 0 3 0
1126 776 24 0 37.470160544257446 6.0995825650112625 15.440101804544094 0 7 0
1446 1096 24 0 35.50879918953184 0.5502000674133654 20.044311005533288 0 5 0
684 334 24 0 39.638787367782236 1.7262103382446028 17.647377952380015 0 4 0
512 162 24 0 42.63993243905478 2.8924035167714943 21.267415245535425 0 3 0
586 236 24 0 42.40647070544267 6.090278803494192 17.01468688869401 0 3 0
1384 1034 24 0 47.14072586714361 3.3387702699250985 15.585830070420188 0 4 0
1341 991 24 0 47.93570610567436 4.137681020041529 20.327521024523392 0 2 0
718 368 24 0 51.09489546550858 1.106757371448335 17.671787590103193 0 3 0
1339 989 24 0 51.26945394499836 6.700255993051874 17.504325995067468 0 4 0
1330 980 24 0 52.43445800451852 3.692585314390416 21.568633653885293 0 5 0
2754 2404 24 0 56.84591293289376 4.256707226194992 14.684125880688494 0 3 1
707 357 24 0 55.998369252601364 1.4431252634011835 18.50861712264362 0 3 0
1399 1049 24 0 55.74745428750322 6.9856593438231425 19.187024392603373 0 4 0
5769 0 24 0 3.4667176370111186 8.330105069073223 17.289561293423795 0 0 0
5773 0 24 0 5.036140467646102 12.957392080572554 20.517148165699663 0 1 0
5547 0 24 0 8.628266841216735 7.88252816185092 15.646100972868345 0 0 0
3471 0 24 0 9.40959458332083 12.738065843440804 18.01448309190382 0 9 0
6183 0 24 0 13.057526280287533 10.84266856969235 15.53187774779594 0 0 0
1181 831 24 0 14.185638699317648 10.81957600903013 20.847983248586445 0 8 0
5684 0 24 0 10.065285966397377 7.990811934032281 20.802284811600774 0 1 0
5311 0 24 0 17.933589085893317 11.209245652361908 16.55013506119201 0 1 0
1288 938 24 0 22.65845028538871 9.397288027853861 14.736802108198264 0 7 0
1429 1079 24 0 26.460139520005775 7.2712644980467225 18.43598542999658 0 8 0
4466 0 24 0 27.878164924335984 12.976641484267102 16.903915273246838 0 8 0
554 204 24 0 23.949084934258245 11.25311268156078 19.815343577287635 0 7 0
4312 0 24 0 28.426415232556092 10.873911109379886 21.41941179366025 0 8 0
1151 801 24 0 35.89364533062764 11.194263695073216 15.861753688518712 0 4 0
1241 891 24 0 31.365546411825644 8.377173873420759 18.326536932382716 0 4 0
405 55 24 0 32.63827673486162 13.141375496623622 19.854697029273023 0 4 0
1292 942 24 0 39.12694860090126 9.227224480819348 19.05249948293076 0 5 0
1243 893 24 0 43.41778482330522 11.319912974208277 17.9377426764897 0 4 0
788 438 24 0 45.813539113827275 8.735395879979972 14.716518989946014 0 0 0
1199 849 24 0 48.843289823123065 12.82553701015089 15.864445437305928 0 3 0
1749 1399 24 0 47.81768940142232 9.669351948872867 19.61391984132838 0 0 0
1125 775 24 0 45.99413569125229 14.168753943061686 20.83324978381301 0 5 0
431 81 24 0 53.30264636288574 11.584623849240712 18.473396455840533 0 3 0
922 572 24 0 56.50203775954656 10.281803907649502 14.727722481838782 0 0 0
6010 0 24 0 3.2566748614914474 18.028957119294983 19.58807344506667 0 1 0
5531 0 24 0 6.93699777225315 17.32752602468436 14.953931835092177 0 0 0
5764 0 24 0 7.651607652718682 16.806806881401155 21.085996701685975 0 0 0
5492 0 24 0 10.934688405099168 19.460598631263167 17.71361561130921 0 0 0
5691 0 24 0 14.142394563190189 15.197605485561112 17.239429195980353 0 0 0
3307 0 24 0 21.76005616053297 14.413333061213937 15.506703860084812 0 8 0
6038 0 24 0 19.73114990454272 19.92497533707288 14.638494544139624 0 0 0
4310 0 24 0 18.729987249609465 15.960946488830247 19.85957510589553 0 9 0
3815 0 24 0 15.644123339666239 19.411498372387616 19.881262225612886 0 9 0
555 205 24 0 21.436273742458138 20.21328262387788 19.0840661824245 0 7 0
4976 0 24 0 24.651365239749193 18.277548435853348 14.782673136987748 0 5 0
5357 0 24 0 24.121037548052172 16.03802182179136 20.03083697812192 0 1 0
4086 0 24 0 28.729344323746194 18.091368767559732 18.161413995558267 0 9 0
3606 0 24 0 32.360262092000255 21.370240752868586 15.240870289946612 0 8 1
1336 986 24 0 33.58819895233831 18.29809940924973 19.452145759750074 0 4 0
1157 807 24 0 38.27148247930877 20.17475029305857 15.437929395865657 0 7 0
705 355 24 0 37.92320825942448 15.497163600293243 18.149009017788266 0 4 0
501 151 24 0 40.590647201430166 20.20186859455247 20.014058258729982 0 3 0
1434 1084 24 0 43.682101115759494 17.056201729022458 17.49657839685528 0 4 0
546 196 24 0 49.506558956755356 17.427475398462217 18.397807318778625 0 4 0
1463 1113 24 0 51.744897356789295 20.17797369457824 14.573805225883563 0 3 0
573 223 24 0 46.41806671462452 21.540118283860263 16.62469288041186 0 1 0
1230 880 24 0 53.54883142901128 15.083705060128635 14.730491616907214 0 4 0
2169 1819 24 0 57.88197477078634 14.578256440754995 17.86511082946151 0 4 1
1318 968 24 0 57.08283793145126 19.272414515909084 16.142601127176977 0 0 0
1645 1295 24 0 54.351749152970314 18.530984668122798 19.96754855559668 0 0 0
5813 0 24 0 4.491868699114326 21.746557544677245 16.00510089197852 0 0 0
6094 0 24 0 5.024469656127805 26.016142261639114 19.621078016895943 0 0 0
6079 0 24 0 9.19108897106203 24.48092167672308 15.532393559749305 0 0 0
5570 0 24 0 12.54967913836216 23.23964450986552 20.00313968714748 0 0 0
5434 0 24 0 14.580369811366905 22.71345115798019 15.15379569700217 0 0 0
3891 0 24 0 13.884974238587708 28.51400581546059 19.160654556621175 0 9 0
5474 0 24 0 19.59149011212236 27.733385541158945 15.563485344050173 0 0 0
4981 0 24 0 17.690582897889268 24.247466719256074 18.927131336492558 0 5 0
1344 994 24 0 22.91055593597384 25.696259683134596 19.20376461526761 0 7 0
5035 0 24 0 23.1447295734089 24.104770185780545 14.872106165487384 0 4 0
1431 1081 24 0 26.36280168380912 22.218113613508173 18.395096210116506 0 8 0
1354 1004 24 0 27.80044314710791 27.43064296668824 19.250966230542982 0 7 0
434 84 24 0 31.012321439892848 22.888133738881844 20.167402689891084 0 6 0
5343 0 24 0 31.877463474435732 26.293794410568832 16.207080670213767 0 0 0
524 174 24 0 36.145154320656694 22.50790792519628 20.29860132400422 0 5 0
1240 890 24 0 40.37726102912206 28.782972179261172 14.443625470036197 0 5 0
562 212 24 0 37.63681004053244 26.93806792221589 18.25918105129889 0 5 0
605 255 24 0 42.108762614198035 23.817170369944506 15.921948741742488 0 5 0
613 263 24 0 42.58540841863031 28.568403278609605 19.104213182220786 0 1 0
1281 931 24 0 50.03248863506613 24.790507036491896 15.649683427649585 0 3 0
645 295 24 0 46.588480710463465 25.798278918949173 19.197079316221743 0 4 0
1104 754 24 0 50.542787357570454 22.103946773862194 19.793574374966568 0 1 0
665 315 24 0 53.984396431999144 27.442021734798686 14.654048033350714 0 1 0
1303 953 24 0 58.94396407260535 22.090904868043154 20.262763738883162 0 0 0
1195 845 24 0 55.03305985864484 24.161245432765913 18.019882622218063 0 0 0
1165 815 24 0 59.1862986954835 27.84264225507316 16.384838651572274 0 0 0
1141 791 24 0 58.136694049262736 27.215925278181526 21.554082766546124 0 0 0
5515 0 24 0 12.538797201291167 34.34655325506894 20.4916712658368 0 0 0
5894 0 24 0 9.129000522326567 30.280791528884016 18.131069632286135 0 0 0
5410 0 24 0 19.04582089749987 35.860690290036445 17.668688978350044 0 0 0
5800 0 24 0 16.664722682485994 31.645700419577402 16.133123623763932 0 0 0
4198 0 24 0 22.09694709310824 31.029857404316104 18.24628574837353 0 9 0
4970 0 24 0 17.890344853277675 32.05803465036842 20.722947163452385 0 5 0
1368 1018 24 0 25.585932853761015 29.176693326549945 14.677276704860233 0 7 0
3798 0 24 0 26.06868599786065 34.12145785349692 19.408832305813853 0 8 0
5345 0 24 0 29.93054715208438 31.902722908505172 17.247365436278596 0 0 0
1465 1115 24 0 34.92060949422128 30.2697247399641 15.019831540832708 0 5 0
1418 1068 24 0 33.080634209884224 29.059948767402144 20.14940827398247 0 5 0
711 361 24 0 34.96602155723956 33.64387703099976 18.223708602875956 0 3 0
1317 967 24 0 42.78602224289568 35.54428719932339 18.15763891294689 0 3 0
1393 1043 24 0 39.17474921547666 31.800571640012528 18.33181717046098 0 5 0
1442 1092 24 0 50.793490045547955 35.18725982597111 18.22974737118907 0 0 0
1239 889 24 0 46.726726511627746 33.894874234942925 15.722241308981658 0 1 0
822 472 24 0 46.537770619465235 32.4217279563855 20.353959993391317 0 0 0
1382 1032 24 0 49.97838502703529 29.567461855133292 17.081101055925497 0 2 0
760 410 24 0 54.33017180264018 35.267401556729354 14.687425274353302 0 0 0
1373 1023 24 0 54.35153890891001 31.335467697373282 19.010450758352565 0 0 0
996 646 24 0 58.14086554756965 33.26926387972932 17.153230821367465 0 0 0
5973 0 24 0 4.0438261278314505 5.884608994504775 25.921294838849395 0 0 0
447 97 24 0 7.875582226484749 1.8406228704737166 23.504190808712107 0 7 0
3286 0 24 0 13.718986891523041 3.112852870428315 24.70984869509055 0 10 0
4301 0 24 0 9.383111282781451 5.892031132551944 26.233284359713313 0 9 0
4589 0 24 0 21.45096608602932 2.9594201742312856 22.06249974902411 0 9 0
487 137 24 0 17.913377549381106 0.4830586481242793 25.71423988202943 0 7 0
650 300 24 0 21.526673691799125 5.461491857836605 26.905856533980902 0 8 0
4732 0 24 0 17.63236093120211 6.7989919193084045 23.4316667954534 0 8 0
5348 0 24 0 16.517695979362646 5.9722481518958945 28.708009989923678 0 1 0
1394 1044 24 0 25.862965310192145 2.469421407671725 24.15196728449869 0 7 0
1117 767 24 0 29.537849034456784 6.333541246144887 25.038408877706125 0 8 0
513 163 24 0 34.61588604781231 4.7402021718473755 26.231242321215802 0 3 0
1385 1035 24 0 31.651636757221713 1.028183403942354 24.27325130737998 0 6 0
566 216 24 0 38.93924556176059 2.2411181481575717 24.260017886392188 0 4 0
561 211 24 0 43.17418266919851 5.700391213020938 26.401541962616495 0 3 0
1997 1647 24 0 45.333993628257346 1.0927958488656588 24.71626309641249 0 3 0
1249 899 24 0 51.84846886207236 1.24098953432389 27.723527445726653 0 3 0
733 383 24 0 48.2966437400829 5.63717266377262 24.9551904303119 0 3 0
1176 826 24 0 59.50958522079859 6.252143282510869 22.876474556406983 0 5 0
1175 825 24 0 55.60023069803354 3.237414190715833 25.288647833280052 0 3 0
2014 1664 24 0 6.271074267119102 9.473007146162193 23.612037192379173 0 8 0
6097 0 24 0 13.00712321044195 9.036904793746462 25.249408414530734 0 0 0
6080 0 24 0 10.760820611513877 13.3106169396737 23.934789405695675 0 1 0
4305 0 24 0 8.462682753228622 11.4786065576488 28.413756976162645 0 9 0
3297 0 24 0 13.19169948753418 13.418880525628671 28.368010265678034 0 9 0
5125 0 24 0 18.86504516947074 11.3385534432609 22.145628315419273 0 3 0
1217 867 24 0 17.502602718942473 10.723451134993645 27.099784558387846 0 8 0
1283 933 24 0 22.36487893385106 11.049607263138652 25.76673771068065 0 8 0
4191 0 24 0 24.29926607850457 7.3206229424652 22.7664482619538 0 9 0
1322 972 24 0 27.639750365106135 10.371814827311306 26.928525318885573 0 8 0
616 266 24 0 34.27112347984891 8.22430723678943 22.750744239077598 0 3 0
1251 901 24 0 34.059204499399605 10.074067554824461 27.132024602689267 0 5 0
1253 903 24 0 36.7089815283486 12.85064692940043 22.569920100499328 0 7 0
3294 0 24 0 31.066929955523594 13.734301543262404 24.924460967675504 0 8 0
1953 1603 24 0 38.15001636451851 12.722453751198353 27.210340369996732 0 5 0
672 322 24 0 41.586573082552285 12.765229196560714 22.98460681816875 0 4 0
429 79 24 0 39.257885505587865 8.625642878216368 24.530007080460386 0 4 0
1377 1027 24 0 43.79004999364515 7.890293764524184 21.848089376660095 0 4 0
508 158 24 0 43.188057832225475 11.68200613388868 27.48414206694077 0 2 0
717 367 24 0 48.609680015189895 10.959802354327294 25.464987281285037 0 4 0
1699 1349 24 0 52.09458815691458 7.310178890499151 28.051892457633265 0 0 0
677 327 24 0 56.75015931689305 8.55745364986014 26.324572325708008 0 3 0
1238 888 24 0 58.05992692824364 11.049741890965596 21.734105959976244 0 4 0
1112 762 24 0 53.04803515136102 9.03856045111172 23.22315201988979 0 4 0
2611 2261 24 0 54.430579165406364 13.012334657406512 27.564810043002854 0 4 0
6087 0 24 0 5.107802454856305 15.508780068519206 25.165951797580774 0 1 0
5384 0 24 0 11.700707911800698 18.09704996200251 24.440391645539226 0 0 0
4971 0 24 0 20.410751171100898 15.220922578117916 24.944532999894086 0 4 0
690 340 24 0 15.632836569278268 15.306996099433924 24.210722551267487 0 7 0
4057 0 24 0 15.720733126586808 21.121804978769294 25.381491716295212 0 8 0
4140 0 24 0 19.907447991981087 19.85872707330761 27.29597867606155 0 9 0
4367 0 24 0 23.60332213752607 18.924666281477617 24.227641017324736 0 8 0
1161 811 24 0 26.313052779104552 15.11709482790624 25.014727432775718 0 8 0
1329 979 24 0 27.024317233539286 19.797816263931345 27.500598933733684 0 5 0
1403 1053 24 0 30.012947241440152 18.77806452853829 23.284178611318872 0 7 0
1203 853 24 0 35.50424562415617 18.880493922378434 24.321906818913632 0 6 0
1162 812 24 0 32.05085204176065 18.939972733098386 27.881800766856305 0 5 0
2156 1806 24 0 40.41240743173707 17.673713587761156 24.446234775210616 0 5 0
1435 1085 24 0 44.61122543458774 19.28375741452408 22.488021617564463 0 1 0
2079 1729 24 0 37.52873266729371 17.490272765452517 28.616692466442576 0 4 0
1538 1188 24 0 49.238967251346196 18.820013474341454 23.42384835418433 0 0 0
1743 1393 24 0 47.41217624619442 19.54295457215085 27.721150642340817 0 0 0
751 401 24 0 45.17616666249537 15.426679506194501 25.3609236936758 0 0 0
1449 1099 24 0 52.693499234548334 14.498993911050755 22.804894385930563 0 2 0
1216 866 24 0 57.46245920528255 16.179157986616577 23.465224158067358 0 0 0
1346 996 24 0 53.857176727637004 19.05526101556789 25.427289920027615 0 1 0
749 399 24 0 57.47239279866005 16.914485275572556 28.769594471927345 0 0 0
5690 0 24 0 5.22903233755515 25.27946692701369 25.06669276061592 0 0 0
6030 0 24 0 7.740902633353587 21.925528419360187 22.00175943718926 0 0 0
5600 0 24 0 9.606606807583171 26.8359736746784 23.403354657674488 0 0 0
6181 0 24 0 7.646961992612212 21.77675832562901 27.904143272947053 0 0 0
5983 0 24 0 12.027737142054725 23.989456308170777 26.91676300871518 0 0 0
4954 0 24 0 15.849444718667776 25.556790396757094 22.98531275768109 0 5 0
5395 0 24 0 20.259212720286524 23.03690467343449 23.292976762215925 0 0 0
1448 1098 24 0 18.29028940884473 25.707083647695335 27.64152892704759 0 8 0
596 246 24 0 20.17221345138534 28.169002103371714 22.536159024638632 0 8 0
1159 809 24 0 26.391161835667845 23.469729698463325 23.083081031012295 0 8 0
1328 978 24 0 23.280557205755088 24.27907284348814 26.901538721384945 0 8 0
5315 0 24 0 28.089459807492567 24.856229786412445 28.264495758816825 0 0 0
1293 943 24 0 29.977447449050835 27.110227466107954 24.231253077532408 0 7 0
549 199 24 0 25.0771796863437 28.698839055209667 23.199025442094772 0 6 0
1147 797 24 0 32.46637462232354 23.208840231223924 24.69653541793685 0 5 0
1459 1109 24 0 34.677293473435725 27.754095068900632 25.077544259196024 0 5 0
1098 748 24 0 43.1964804830099 21.78047181251032 26.46724356362952 0 0 0
1370 1020 24 0 37.89158027070574 22.808751613708438 25.98394749912073 0 2 0
679 329 24 0 42.60766239794031 24.135077207079682 21.815523634977914 0 5 0
1139 789 24 0 39.0322817209854 28.29046230727087 22.9427972335569 0 5 0
5074 0 24 0 41.54778495846078 26.439474171137384 26.445964565017725 0 3 0
381 31 24 0 50.70833964046656 27.227062878402823 21.659188269660884 0 1 0
592 242 24 0 47.16041012920713 23.656874962980222 23.747937853108702 0 3 0
1481 1131 24 0 50.939792591197005 23.281638994672782 26.48455305380997 0 0 0
624 274 24 0 46.03005679946205 26.10621551710215 28.305349713652344 0 1 0
526 176 24 0 46.13035069367934 28.654101402844507 23.50457989446019 0 5 0
485 135 24 0 50.30424586221118 28.535623050412543 26.699789094260684 0 1 0
506 156 24 0 54.7429712220277 23.938842283612352 23.250260252505008 0 0 0
1286 936 24 0 59.2756980084687 25.097421987963695 25.36982469271287 0 0 0
1767 1417 24 0 54.64462572873699 27.16847501081578 28.649507307091735 0 0 0
1587 1237 24 0 55.92051676476431 22.432672454025017 28.282922463978164 0 0 0
6153 0 24 0 6.359860686798008 34.2729501796442 28.75814667948109 0 0 0
5514 0 24 0 10.98807771566039 35.07767916603555 25.595557760457385 0 0 0
5440 0 24 0 8.334641540037762 31.549074303208876 23.63767029716434 0 0 0
5648 0 24 0 13.282773881116285 30.78269872846354 24.278192760114962 0 0 0
5281 0 24 0 17.430724788530117 30.401969615860562 26.646395367471374 0 0 0
5461 0 24 0 21.16768252234072 33.6912139452992 26.939305776145968 0 0 0
5070 0 24 0 22.06349133283269 28.95974290617136 27.46783961431935 0 4 0
5858 0 24 0 15.839215169446922 35.11670771614 24.448731460845913 0 0 0
658 308 24 0 25.259907487170448 35.302791100454996 24.39807078547821 0 8 0
3992 0 24 0 26.811057928648626 30.59559956001117 27.547281901771857 0 9 0
393 43 24 0 36.4333455521871 32.233957304378876 22.828194400275926 0 5 0
1131 781 24 0 30.811762078490524 32.256855012322944 23.687194502319517 0 5 0
1451 1101 24 0 33.68918666046366 33.05913575531735 28.670706622151894 0 7 0
1265 915 24 0 41.65408385768737 35.81144347765555 26.915673677775597 0 2 0
1460 1110 24 0 42.22401685251649 32.4008730495271 23.08779668336131 0 1 0
567 217 24 0 39.09194964633437 31.19000255040513 27.016268575495566 0 5 0
1650 1300 24 0 43.927707087684155 31.136329011434295 28.525800921988363 0 0 0
1578 1228 24 0 50.63376096600329 32.366399818394 23.18436616253179 0 0 0
1029 679 24 0 46.37546743871145 34.26001754731558 25.58733657508092 0 0 0
79 1 3 0 56.52729912767015 34.83522613942044 27.3340513409932 0 0 0
82 1 11 0 55.97353667589448 34.303369674032105 27.93500962287033 0 0 0
70 3 18 0 53.97390297272474 33.94742693024663 27.759475028366495 0 0 0
75 1 19 1 58.36317598106028 29.118603347109975 26.835564729347915 0 0 0
83 1 3 0 59.08079496758116 30.033456327640337 25.999278617506917 0 0 0
489 139 24 0 58.570084209407106 33.36505193167228 22.608094660195302 0 0 0
73 4 3 0 53.03212198833879 32.27657089744713 28.28669560781111 0 0 0
1709 1359 24 0 54.61153734418099 28.97417040088397 24.030074084635153 0 0 0
76 1 3 0 54.39241813471413 33.660361717408996 26.170197240462493 0 0 0
74 4 8 0 56.3888572225684 31.682248158004523 27.940833586432586 0 0 0
81 1 3 0 58.28433782357397 32.40389270008743 27.37067053118621 0 0 0
84 1 4 0 57.76048628376721 33.4183429996731 27.913595127326378 0 0 0
80 1 13 0 54.366556511614526 35.29720850016876 24.596556664075354 0 0 0
5028 0 24 0 4.241683145613093 3.142897090794421 34.637945631313045 0 5 0
6233 0 24 0 6.906452123959905 1.6028017216709076 29.882662729974825 0 0 0
4839 0 24 0 7.1337644313054795 6.572886207932945 31.41428340539346 0 10 0
3695 0 24 0 13.624385894989377 1.3220612719512022 34.95246750913844 0 8 0
6179 0 24 0 9.160606853234631 1.740547797414603 35.73711855824084 0 1 1
4203 0 24 0 11.825205725240652 3.7271467791593897 30.01752332537381 0 9 0
5932 0 24 0 11.158993658053115 6.3474624780227 34.827668107558075 0 0 0
3416 0 24 0 15.90487926909226 6.371007743889181 33.74838906078545 0 8 0
5335 0 24 0 20.700148235252332 4.1887512166996235 31.269088198028633 0 1 0
6168 0 24 0 16.8682745504572 1.3580041968630931 30.801420595687667 0 0 0
428 78 24 0 24.478204383492482 1.3111164799526598 29.569062375041955 0 8 0
5438 0 24 0 25.346065767235206 6.7092034627658474 30.055621681165082 0 1 0
3300 0 24 0 24.31608812999192 2.1933303342660144 34.51499997103433 0 9 0
1193 843 24 0 29.79887972751089 3.3291759118256268 34.72397489272848 0 5 0
5135 0 24 0 36.88942680899764 0.9995962820499006 29.100839427672696 0 3 0
5185 0 24 0 30.556528484300294 2.666374368892382 29.433138612664685 0 2 0
1388 1038 24 0 34.52705272588269 4.3099069699147625 32.599667975459106 0 8 0
2164 1814 24 0 41.24463935559285 3.5698622724579305 30.81787081529607 0 3 0
2869 2519 24 0 38.514154022269686 6.424572806167495 35.25952715108093 0 6 0
1882 1532 24 0 44.74026391811826 6.5603350466409776 33.5457371417663 0 4 0
2817 2467 24 0 42.593252957898834 3.026396922643641 35.68010605853701 0 5 0
1453 1103 24 0 51.19178624742782 0.11756557133999354 32.323362496264714 0 3 0
1964 1614 24 0 45.62986026873742 2.1568901097247903 29.79903465386596 0 3 0
2094 1744 24 0 47.412317888957155 2.70336800613417 34.400686466073644 0 3 0
1887 1537 24 0 50.96473332430149 6.970652425947949 33.60534600860728 0 3 0
1686 1336 24 0 55.6387758359815 4.434415664836341 31.049044140978378 0 0 0
5856 0 24 0 8.266983406095507 12.446470255184778 33.58077010846334 0 0 0
5759 0 24 0 12.9304030895597 9.035944653993537 30.46755617537642 0 0 0
5129 0 24 0 19.419020479439812 10.654390408557653 35.92980657671709 0 3 0
628 278 24 0 21.314892271966524 10.7578531079611 30.77674313807298 0 7 0
384 34 24 0 16.749228865173027 11.920366057029806 32.03287911455647 0 8 0
472 122 24 0 23.307898057662317 7.253898939504246 35.105446645368374 0 8 0
5166 0 24 0 25.91324505722894 11.35769698518844 32.79061239060702 0 2 0
1263 913 24 0 29.94558038875008 7.823663508346572 32.29042120738263 0 8 0
1208 858 24 0 35.29642067690532 10.477724604090664 32.65992598413072 0 4 0
1316 966 24 0 30.80305431880719 13.236532679826707 33.40570279232741 0 6 0
1133 783 24 0 37.68153526379766 7.333321647257069 29.45986450093369 0 4 0
2799 2449 24 0 41.771415454912095 9.720316237207905 31.42821302568318 0 1 0
1991 1641 24 0 47.66643771771109 10.715513720079562 35.94324756396335 0 1 0
536 186 24 0 46.141985963797644 13.116456178822462 31.67710336096923 0 3 0
627 277 24 0 47.32466159145832 8.209137708642038 29.72938550684236 0 2 0
1110 760 24 0 50.96612968503377 10.788901133150056 30.889561080261412 0 4 0
1967 1617 24 0 50.60096847574595 14.258654841181986 34.140797897283015 0 1 0
556 206 24 0 56.20603103145361 9.030323932547967 31.439998412790096 0 1 0
1122 772 24 0 55.07079496519885 14.093881065971017 32.489648345381035 0 0 0
5587 0 24 0 14.223581952971074 20.03034924868532 34.72718529178688 0 0 0
6067 0 24 0 8.800475221044952 16.691301021796907 29.48765733509447 0 0 0
4201 0 24 0 13.499235041168845 18.598723474148354 29.036644785582624 0 9 0
5321 0 24 0 13.257801521857164 15.242204722927015 32.785270198194006 0 1 0
1464 1114 24 0 21.854162066022646 14.518765050533188 34.055497975769725 0 5 0
5114 0 24 0 18.21618189663715 16.343877795738567 30.748769238570098 0 3 0
5340 0 24 0 18.96523427817692 20.295746056848493 34.42615833696624 0 0 0
380 30 24 0 23.21967703945307 15.068148337437814 28.841186594762647 0 5 0
5042 0 24 0 27.10679011836414 16.2906102218042 34.27693161301921 0 4 0
1323 973 24 0 28.30137099239569 15.029710920340728 29.661722906024536 0 5 0
5324 0 24 0 23.224649306492868 18.829287683457952 32.08652614782549 0 1 0
575 225 24 0 28.923607594587374 20.469695126619097 32.032809183445416 0 5 0
418 68 24 0 33.78634739630475 14.586385486301896 30.07847901361417 0 1 0
388 38 24 0 35.61762948386619 18.419996339707016 33.54804173515359 0 5 0
2987 2637 24 0 39.88560068371179 20.1318885577096 35.29476805026583 0 0 0
445 95 24 0 39.41209309578435 14.637714427497292 33.44670879921614 0 5 0
401 51 24 0 43.75825690985821 17.033758221732285 34.9556668516068 0 1 0
625 275 24 0 42.429843066737796 17.203167586804753 29.351665755995672 0 3 0
1768 1418 24 0 50.45330557196053 15.740116111003015 29.1903590829237 0 0 0
757 407 24 0 48.03805572067143 18.020300943461166 33.463325379519766 0 0 0
1143 793 24 0 52.2874857403517 20.028526650562327 30.646057656852257 0 0 0
1225 875 24 0 58.142135019916076 19.18291899668647 33.316967742031025 0 0 0
1751 1401 24 0 53.017992189159855 17.93782217545283 35.68124859062041 0 0 0
5877 0 24 0 4.756404466400215 28.059105406476192 35.72204256975317 0 0 0
5694 0 24 0 14.487869388797625 25.679452079953595 35.61829150594757 0 0 0
5550 0 24 0 7.605611947695229 26.116069957709794 29.531724965647136 0 0 0
5510 0 24 0 10.961523334690426 23.137444903105923 32.745731265627114 0 0 0
5888 0 24 0 9.826554244829731 28.59122499318747 33.91007054574452 0 0 0
5760 0 24 0 14.114390018301131 28.25451479811494 30.103278858890103 0 0 0
1103 753 24 0 15.838878563531807 22.817870546163416 30.55110353935629 0 8 0
5427 0 24 0 20.160644199545708 25.71896189705395 32.486863434159645 0 0 0
4916 0 24 0 24.6372472361275 24.011133531413673 31.5014574722311 0 6 0
4643 0 24 0 26.04862811450998 28.341067255614025 31.84228374213648 0 8 0
1119 769 24 0 29.65706784841767 24.93018617160207 33.576386053819455 0 7 0
5131 0 24 0 34.543204285112424 22.996643240905865 34.95894773271729 0 3 0
1275 925 24 0 32.86825898975311 23.458417969280365 29.871037491502257 0 4 0
1705 1355 24 0 34.48424601063218 28.583711175889672 33.54345349916773 0 0 0
1308 958 24 0 37.27943875681072 26.74678446907936 29.32184457385502 0 5 0
329 1 3 0 38.72010610300272 28.03113866319839 35.804305125861816 0 0 0
1681 1331 24 0 44.88533485216466 21.653323073013084 32.19214663776779 0 0 0
332 1 7 0 39.4519269010827 27.660956258078787 34.269905329569625 0 0 0
330 1 9 -1 38.634905537613356 24.990007812415783 34.2986170711175 0 0 0
1342 992 24 0 40.4015994515046 22.11075090259166 30.860493363025828 0 5 0
331 1 6 0 38.70502122169801 25.047929232289864 34.28397018076029 0 0 0
752 402 24 0 42.66434342728484 26.529675501893394 31.66547915688347 0 0 0
3262 2912 24 0 49.88881395361965 22.19128168039106 35.422336577799015 0 0 0
1801 1451 24 0 46.00096919370707 25.585837634114938 35.43405317789408 0 0 0
60 1 4 0 50.107735395410145 28.16970439167341 34.372977897279604 0 0 0
1656 1306 24 0 49.887406025412965 24.764688708612574 31.35176354776482 0 0 0
55 1 6 0 47.515855490453234 28.413752214546594 32.21394039601409 0 0 0
3198 2848 24 0 59.70989328099712 25.004102335240123 34.05323877681015 0 0 0
1361 1011 24 0 54.41576565915634 27.915036118527375 33.44635649445989 0 0 0
1641 1291 24 0 54.85272595986702 22.363732307427842 34.334938169763134 0 0 0
5929 0 24 0 9.396021474662838 30.483868148831522 29.1312045819556 0 0 0
5997 0 24 0 8.496555717389894 33.63783092256067 33.98602985624466 0 0 0
5761 0 24 0 14.033510236584759 33.371370985316744 29.47111499506434 0 0 0
5436 0 24 0 17.890865248279653 35.20010226227849 35.17419899492474 0 0 0
533 183 24 0 19.0676171741776 30.840949674487426 31.525944939025464 0 8 0
5649 0 24 0 15.09732236238776 30.513549155966132 34.78224977326922 0 0 0
5133 0 24 0 22.679830635892596 28.964635026882576 35.63269886739314 0 3 0
3423 0 24 0 23.971277870828384 33.01136183190578 31.613232996663694 0 8 0
602 252 24 0 29.43094063787228 33.641750877831974 31.548929132698202 0 5 0
446 96 24 0 31.33861665271085 28.831535813228566 29.780292241803775 0 6 0
395 45 24 0 34.410146273203026 33.69352872477168 33.6590101795435 0 4 0
327 1 6 0 37.506005201330076 31.159345309304346 35.98590043944543 0 0 0
325 16 3 0 39.06397435960696 34.54182784620797 35.7806143739379 0 0 0
54 1 8 0 42.861645892158236 29.370500421084095 35.843164264378345 0 0 0
621 271 24 0 38.34660221157013 35.39940837318091 31.013631860033403 0 5 0
720 370 24 0 40.186938289127994 31.23219094709997 32.24314110440026 0 5 0
349 18 23 0 43.99538146487616 34.369843211918095 34.382631012405575 0 0 0
72 4 17 0 52.47528965521476 31.27305111125041 29.200915450471314 0 0 0
56 1 7 0 47.43987802254431 29.46331708110155 29.73659793395173 0 0 0
1523 1173 24 0 45.37971337110383 35.248870914659236 30.536512414437887 0 0 0
53 1 14 0 45.51044196698353 30.434939683373926 33.958880485279145 0 0 0
64 1 15 36 49.51657233303524 35.44454811620483 31.670755668052532 0 0 0
59 1 3 0 49.122128934145906 29.67191389995854 31.0887032295844 0 0 0
827 477 24 0 48.472702902438236 33.83015547543956 34.88717710214648 0 0 0
62 1 7 0 49.18729318517329 34.696867429879894 30.664162274939653 0 0 0
52 1 4 0 45.695350346561895 30.229541521743933 33.15551112003562 0 0 0
61 1 6 0 48.80776148463045 32.43075925869009 29.242420777758692 0 0 0
63 1 3 0 51.27284379394 33.31184255365901 31.121986479071776 0 0 0
57 1 3 0 49.69685723111889 28.943588405093536 34.53339269612915 0 0 0
69 3 3 0 54.1154629669895 32.419202358936865 31.139092406189306 0 0 0
71 4 17 0 53.004456785531 33.4898752494408 30.971230134090185 0 0 0
1302 952 24 0 58.46279864022943 30.232836585610066 32.15156448209185 0 0 0
254 10 23 0 57.06976086610998 33.503311832258326 35.00307304314176 0 0 0
5469 0 24 0 5.99132715363585 2.6644318011627472 39.49417643763624 0 0 0
5874 0 24 0 12.415176674608965 4.336522914878887 39.27397531630036 0 1 0
5844 0 24 0 8.07807695619846 6.991207959694836 38.3613422299569 0 0 0
5478 0 24 0 12.280612307421668 1.1916587390047362 42.82029985797939 0 1 0
5541 0 24 0 16.324092582194673 0.36511431095869357 39.43983186313918 0 1 0
2727 2377 24 0 19.354801117678267 3.7962891065024578 37.11861315012656 0 8 0
1994 1644 24 0 19.413058336373197 3.283177852229192 42.80118764814367 0 8 0
5194 0 24 0 21.99983752772404 6.91536601428558 40.55197347515417 0 2 0
2562 2212 24 0 24.58247844253695 2.21477420074775 39.85484965156956 0 5 0
4778 0 24 0 29.62331959494988 1.4069059639206338 40.26206810212949 0 8 0
5191 0 24 0 34.06132571259842 4.300853160976533 38.29332959901465 0 2 0
1304 954 24 0 30.072476052838 6.573860614767662 41.37894167345667 0 5 0
2114 1764 24 0 38.69910398319503 2.27267762526739 38.82882202527933 0 5 0
2125 1775 24 0 43.52103754982292 1.4504921425029647 40.30764295830716 0 3 0
2051 1701 24 0 41.75587987591663 6.951310843337539 39.09090858966345 0 4 0
2640 2290 24 0 52.27534024976499 5.142144305105328 40.20059223399509 0 4 0
2035 1685 24 0 47.70992791319616 5.6600768361975256 38.234456821173744 0 4 0
2421 2071 24 0 48.00052830679643 3.0903005739974785 42.76984839581119 0 1 0
2672 2322 24 0 49.52697855078381 0.03982012353690418 39.12732871859373 0 4 0
2915 2565 24 0 56.6789029979371 2.6749237265621235 40.92433467467455 0 0 0
1657 1307 24 0 58.403518709434266 2.7351649088936294 36.55037130401133 0 0 0
2694 2344 24 0 53.54732872219737 1.1714330029920919 36.786422378324126 0 4 0
2907 2557 24 0 54.98187794470913 6.608904866610015 36.38786521708807 0 4 0
6167 0 24 0 11.379284223472839 9.12092353454043 41.45063810947608 0 1 0
4946 0 24 0 13.633983136460788 13.47031147343575 42.21594298972443 0 5 0
3820 0 24 0 14.001681790100715 11.091658499668815 36.10703311466291 0 9 0
5417 0 24 0 9.06531694572071 13.748435693819417 39.47514774042037 0 0 0
5048 0 24 0 16.13468668084371 7.535728247258001 39.85227906813216 0 4 0
3563 0 24 0 17.638306186224792 11.341109372691704 42.378925374357614 0 8 0
1254 904 24 0 27.908559625979468 7.617061819401927 36.829169577908814 0 5 0
626 276 24 0 27.969835379273945 11.06871863973084 43.17001560157963 0 5 0
1307 957 24 0 25.093690795906962 11.760267681363718 37.87979783691781 0 6 0
2862 2512 24 0 22.975264317412776 10.942503406630575 42.575800777978706 0 6 0
5300 0 24 0 37.16571926846363 7.732677724075434 40.59760868265791 0 1 0
2720 2370 24 0 33.333408247781776 10.935750755843403 41.588729333064286 0 5 0
2192 1842 24 0 32.94135875451263 8.635300294111836 36.43098302114112 0 4 0
2774 2424 24 0 38.123753068735304 11.108607784830937 36.66988588885717 0 4 0
2088 1738 24 0 40.159363486639286 11.920970593426539 42.04358606012547 0 0 0
1951 1601 24 0 43.057814280559505 12.321961766733907 36.75900492967082 0 4 0
2135 1785 24 0 45.502685941644025 12.112310044962353 42.20924611383248 0 3 0
2798 2448 24 0 50.39923503484493 9.496345529313318 40.987708978087795 0 5 0
2682 2332 24 0 49.08947193069429 14.354315229272215 39.199598536557346 0 4 0
1563 1213 24 0 52.49398927408734 10.987012358269723 36.82178644962208 0 0 0
2229 1879 24 0 57.29714333014674 7.427154100753496 40.78220988438519 0 0 0
2971 2621 24 0 57.42408684046195 11.102455934621617 36.483562174233036 0 0 0
1719 1369 24 0 54.93575241053407 12.179010806892315 40.8696684870526 0 0 0
3143 2793 24 0 59.54312925426785 11.803210395569483 42.27585303933195 0 -1 0
5525 0 24 0 12.762511520207953 18.122769834702673 39.72662822613289 0 0 0
5867 0 24 0 8.3730581622783 21.32926812489663 37.82532041369839 0 0 0
4809 0 24 0 21.424771086137753 14.652157252580821 39.28271803243581 0 8 0
5698 0 24 0 18.53289439454174 19.936832555218135 39.77314506421777 0 0 0
1136 786 24 0 17.28092448857845 15.247422567214677 36.52331296408588 0 8 0
4812 0 24 0 22.90477967456488 18.71932879113582 37.37484359492975 0 8 0
3270 0 24 0 28.116526006023513 15.349524407609564 39.9355532634785 0 8 0
1883 1533 24 0 27.863945604003824 20.74604593280356 41.568044234696224 0 6 0
2619 2269 24 0 23.811633965290884 17.43418390866929 43.14880639422057 0 7 0
1120 770 24 0 33.59423169563902 14.666655695961426 38.39645638333366 0 4 0
2124 1774 24 0 32.55585798639628 15.767019385635292 43.09284890715586 0 6 0
618 268 24 0 35.4651183544518 19.13614618632946 38.76700518178435 0 5 0
1312 962 24 0 31.37388561232068 18.614424562085368 36.37450448028961 0 5 0
2136 1786 24 0 37.08775739308545 17.190250549435632 43.11813362917221 0 5 0
521 171 24 0 39.38847378666023 16.112945352403504 38.672669903156816 0 3 0
1340 990 24 0 41.274168857534015 20.29117611082731 40.32043620000284 0 4 0
2768 2418 24 0 44.913327910760145 16.77025117717518 40.02301329320104 0 1 0
1488 1138 24 0 45.37055744834267 21.224197688819384 37.16943570864612 0 0 0
2364 2014 24 0 49.04092558364168 19.585784043193517 40.311649304533546 0 0 0
3199 2849 24 0 53.48729513002658 17.77603796581569 40.390831264346176 0 0 0
2740 2390 24 0 57.30277944484629 20.795177130847605 39.14126438255801 0 0 0
1606 1256 24 0 57.376088059498294 15.837846100354211 37.951182707657274 0 0 0
5875 0 24 0 14.569956026469338 22.994526788637092 39.90029301405733 0 0 0
5976 0 24 0 9.764454433298129 26.70067448084422 38.41338831275615 0 0 0
5290 0 24 0 21.963182514882877 23.486958953350268 36.77700472937189 0 0 0
4300 0 24 0 21.208394347725864 27.72941607198323 40.89845807954819 0 9 0
3901 0 24 0 15.219139595954676 27.83974126607704 40.03005449803689 0 9 0
5465 0 24 0 23.125207441393865 21.900512091428073 41.51432924858715 0 0 0
1278 928 24 0 26.558218506514645 21.61074333388948 36.43337851431038 0 7 0
5567 0 24 0 26.72852379797298 26.618310003859293 38.023287359131 0 0 0
4983 0 24 0 25.52125692662714 26.566855153808753 43.047036881496915 0 5 0
2047 1697 24 0 32.18045827597811 23.87516579732214 39.67060399804447 0 4 0
1673 1323 24 0 37.466422142246074 23.767255971573594 39.03513782513915 0 0 0
2446 2096 24 0 34.742428017854664 28.116408944464162 38.38335617282765 0 0 0
335 1 3 0 40.14885196587536 27.60126504031848 37.46049851975053 0 0 0
333 1 3 0 41.31714200173733 24.643774403621954 36.56195702995506 0 0 0
3166 2816 24 0 44.18986311041784 26.220366023944482 40.469227413134604 0 0 0
336 1 13 0 41.49292375435246 24.330343174906133 36.8761433714867 0 0 0
334 1 21 0 39.982450045686754 28.124873894711545 37.84401435795176 0 0 0
3133 2783 24 0 48.5746582292379 24.87101376771118 40.94545890684705 0 0 0
1539 1189 24 0 52.17477884992651 25.889710994234086 37.55441422249184 0 0 0
45 2 16 36 50.873000449353285 28.65114106801235 41.81210777961325 0 0 0
50 2 13 0 48.63181549565472 28.547968967101887 38.50237963267191 0 0 0
2208 1858 24 0 53.49509971833904 22.779742901510936 41.19640638758139 0 0 0
37 1 6 0 56.18989057403057 26.04734288541501 42.823457282011695 0 0 0
3091 2741 24 0 57.20382109628328 25.377318107911435 38.142085548402314 0 0 0
38 1 7 0 58.380842447218456 24.487533195166016 42.98324737166909 0 0 0
35 1 3 0 58.815879784149686 23.841829843432343 42.606754940506036 0 0 0
6112 0 24 0 6.933172948947727 29.809855849654557 40.35865822940483 0 0 0
5437 0 24 0 11.474228704644508 31.01740949493864 38.47111457751924 0 0 0
5689 0 24 0 9.335884379272532 34.593161585654826 41.63721694336311 0 0 0
2578 2228 24 0 15.552995425389414 34.14223792472853 39.939865705211936 0 8 0
5485 0 24 0 19.035400510170835 32.96305589372802 42.96185265839566 0 0 0
5389 0 24 0 21.66652761767417 33.21529244352706 38.22376635857404 0 0 0
1111 761 24 0 26.382500191099926 31.196379028386396 40.82627047791065 0 8 0
2838 2488 24 0 26.447086720801536 32.65131325024152 36.042608850083994 0 6 0
2685 2335 24 0 30.80779301494959 28.86647735012566 41.72849066667489 0 6 0
1389 1039 24 0 31.984616350660644 33.19534386673092 38.93282205620518 0 5 0
5008 0 24 0 35.34630297673699 31.41909022475059 42.09908583394644 0 4 0
326 16 9 -1 36.72248127703787 32.10031854130035 37.21735713601743 0 0 0
1180 830 24 0 30.37170040251386 29.34857141559684 36.191763321769564 0 6 0
337 1 3 0 39.49231885123372 28.980168858075224 40.80992409555051 0 0 0
328 1 7 0 38.41492010857875 32.530419248063424 38.12962698873116 0 0 0
338 1 5 0 39.28003380434726 31.84409433370973 40.29170486854419 0 0 0
339 1 3 0 40.62309448916547 31.997682232753636 40.4301531380674 0 0 0
346 1 15 0 42.44094552117194 33.33600197941665 39.029045875986796 0 0 0
343 17 3 0 43.70327218881698 32.62703780839447 38.3190178588313 0 0 0
344 17 5 0 43.340251776831074 30.844842710984494 40.73898054511042 0 0 0
340 1 15 0 43.530684797254715 31.72036494746584 39.74403974195425 0 0 0
348 18 17 0 44.39740665027561 34.61187424873552 37.188862371354226 0 0 0
347 18 17 0 41.97260061690107 33.26081977748159 36.069571743157105 0 0 0
1041 691 24 0 43.59970162405681 34.9728029098268 42.52436621175701 0 0 0
345 1 3 0 44.556062610659886 35.703075312905156 37.245024710863206 0 0 0
51 1 3 0 45.67034218853189 30.11818550279102 37.155166978398576 0 0 0
58 1 9 -1 49.10941208815212 29.213409274481755 38.264502359345194 0 0 0
42 1 8 0 47.07981400953231 29.202142592875866 42.56265288852781 0 0 0
43 1 3 0 49.4092473153975 29.718322339318988 40.31805140516553 0 0 0
49 2 3 0 45.96175770058808 30.71027454106506 40.411757532453166 0 0 0
341 17 16 0 46.48300334817559 32.72510089167595 39.27652367803868 0 0 0
261 1 3 0 47.12348290490061 31.626941823736452 42.24367547417071 0 0 0
342 17 20 0 45.48468779724157 30.7509416143228 37.69550540045844 0 0 0
259 1 3 0 49.33224696825644 32.326003654657804 39.43119771116973 0 0 0
262 1 9 -1 50.08369936310555 32.63628401107209 41.00679041027054 0 0 0
260 1 4 0 52.04699390285439 33.433799867256056 41.10882493415686 0 0 0
17 1 6 0 51.49938724822485 35.05275229086386 43.17939538310717 0 0 0
252 10 17 0 57.02105271075448 35.128035641365486 37.34551215425869 0 0 0
15 1 3 0 52.592201412915514 34.85321903784306 40.07895858208693 0 0 0
1497 1147 24 0 59.07627766913337 29.726334423264227 37.125117114941276 0 0 0
13 1 6 0 55.29217705785144 34.30244384102075 38.79408464358031 0 0 0
1784 1434 24 0 54.69355901228566 29.615596678530657 40.42236484219563 0 0 0
258 1 11 0 53.42726617685119 35.727253665240006 38.74296317981948 0 0 0
18 1 7 0 54.10213058298681 35.86129167070109 43.15347034974733 0 0 0
1708 1358 24 0 52.947652149444586 31.785674684892612 36.29783909319263 0 0 0
14 1 7 0 53.687152267879675 35.63066861271279 37.061858725087355 0 0 0
3215 2865 24 0 59.974518194859016 33.61545599273295 39.64251237941246 0 0 0
5382 0 24 0 9.13348106127527 4.858978139766797 43.92735377317205 0 0 0
5371 0 24 0 11.786162839678482 2.9444938624709804 47.69143742900888 0 1 0
5546 0 24 0 14.42014513838371 5.725828670634834 44.34370909225006 0 1 0
4196 0 24 0 16.646763087486516 1.1305352806854818 46.871809583574795 0 9 0
6058 0 24 0 21.36726027939677 4.141025877565397 48.68411794081476 0 1 0
4502 0 24 0 15.129910270808358 6.23564663491262 49.655318254328265 0 9 0
2709 2359 24 0 25.595117924702024 6.14924582583423 43.56356010751397 0 6 0
1301 951 24 0 29.777178523512163 2.4183645187027545 44.99753804187518 0 6 0
5576 0 24 0 24.461343769540086 1.7901958142676622 45.38600053339894 0 1 0
5860 0 24 0 26.07517289654603 4.935346308580932 50.25434109866961 0 1 0
1845 1495 24 0 34.74362970605902 3.4545256142972924 43.22741324157929 0 6 0
2617 2267 24 0 33.3929654575976 1.4490985835404449 48.291731951026414 0 6 0
2614 2264 24 0 34.147615196885965 6.4983975982553694 47.77390951680026 0 5 0
2560 2210 24 0 39.94513412107194 4.347088486444899 43.64170410595756 0 5 0
1990 1640 24 0 40.8961073234829 5.087885738402491 48.49374665639521 0 3 0
4532 0 24 0 43.762859496317084 1.1508283119205402 45.3273948079213 0 9 0
2216 1866 24 0 48.65064051624181 1.7592243360857602 47.81126376467867 0 1 0
1956 1606 24 0 46.356975401134164 5.79231181917529 49.94975761888457 0 3 0
2650 2300 24 0 57.11764458727945 0.37921273975529646 45.33170605072275 0 3 0
2191 1841 24 0 53.015633696894604 5.862712736918964 48.632474869017884 0 3 0
2080 1730 24 0 53.07431061858156 2.7781316300785854 44.38733782662411 0 3 0
2267 1917 24 0 58.119917953541915 5.639743024568498 45.4782409099707 0 -1 0
2092 1742 24 0 53.57983180815758 0.9350058552905514 48.97432602755595 0 1 0
1947 1597 24 0 58.510426457889466 2.1945771757408785 49.56383399552179 0 1 0
5716 0 24 0 10.6875014804294 10.082764955221661 46.47620511415247 0 1 0
3804 0 24 0 15.810602901534999 9.984229312112438 46.717429299857905 0 8 0
5403 0 24 0 20.010224053109138 8.165951202030682 45.222249009943035 0 1 0
4551 0 24 0 29.106507111670112 7.603655577027317 47.49344663032342 0 9 0
5473 0 24 0 24.83820161687723 8.911420292515443 47.727153440535005 0 0 0
2881 2531 24 0 25.233719303094738 13.586300047581265 46.472151955525604 0 5 0
1954 1604 24 0 30.34963938732379 12.093735463141881 47.35116873068726 0 5 0
5068 0 24 0 35.76835690011841 12.94437252022106 46.00263136208207 0 4 0
2699 2349 24 0 37.85890439520373 8.474520144695012 45.22146137329082 0 4 0
2110 1760 24 0 42.880376238016105 8.341775588478741 44.680142062372816 0 3 0
2065 1715 24 0 40.963133366575 12.515090268226432 47.09062456764878 0 4 0
2801 2451 24 0 43.418001344121706 9.757259445986294 50.009490904415564 0 4 0
2038 1688 24 0 37.59293127678238 9.367623674184983 50.09448392549045 0 3 0
1871 1521 24 0 48.570903746376416 7.793928318833153 45.21358849889748 0 3 0
1962 1612 24 0 46.20076826035613 12.918649530220895 47.331154403595285 0 3 0
2123 1773 24 0 50.974023981077295 12.470637961316081 44.76911889609668 0 3 0
1969 1619 24 0 49.97721953887988 9.718341015709663 49.597701181969114 0 3 0
1944 1594 24 0 53.52955679540655 8.316950965447099 44.487192777644324 0 1 0
2787 2437 24 0 56.032196234947854 12.654600469132301 46.720804223513085 0 0 0
3464 0 24 0 8.02617481304042 20.543859210693796 43.53684229374244 0 9 0
3883 0 24 0 9.753832598504493 15.786698616122193 45.077304683860426 0 9 0
5810 0 24 0 13.677225689941515 19.728828570539196 44.864143200784135 0 1 0
5167 0 24 0 8.608105183426932 20.305085377485117 49.11429693553897 0 3 0
5598 0 24 0 14.987721817366843 15.33857991345831 47.60489465548362 0 0 0
2561 2211 24 0 17.909650421875337 16.099995692921635 43.30706803802647 0 6 0
4747 0 24 0 20.301552912283643 14.613391099246002 47.43196778161677 0 8 0
3332 0 24 0 20.240425470197348 20.24135829128369 46.17610799970073 0 9 0
5443 0 24 0 16.080543686246273 19.996013999119405 49.52312909573491 0 0 0
2819 2469 24 0 28.42204374216368 17.588444090413727 45.8134404564984 0 6 0
5544 0 24 0 24.13251944547763 17.815891389037475 48.33017937184068 0 0 0
2055 1705 24 0 32.18838966765292 20.23969790993348 44.81307570372962 0 6 0
2840 2490 24 0 32.94645602798899 17.0182144005258 48.19345200231281 0 6 0
5442 0 24 0 35.35071208939973 21.336315365361695 48.90553310758942 0 0 0
2710 2360 24 0 44.28959669463376 21.181056920083197 43.99001052682056 0 1 0
1968 1618 24 0 38.244309529435625 16.534201363805778 48.19498493834077 0 4 0
1134 784 24 0 42.40895868446523 16.70281550543282 44.476932049099915 0 4 0
3078 2728 24 0 40.14100119726465 20.760763318099478 46.60209484011183 0 0 0
2968 2618 24 0 42.98125174715241 17.68589717544061 50.00827420865514 0 0 0
2951 2601 24 0 47.199354007736154 16.69925867240904 44.222443910921235 0 0 0
2963 2613 24 0 47.8353618878344 19.158726632085536 49.11951029217885 0 0 0
3155 2805 24 0 52.43867404401175 21.294962355079964 49.90304018991288 0 0 0
1848 1498 24 0 50.37923786355356 14.844882610702479 49.24333388243223 0 3 0
3169 2819 24 0 51.99794063549704 17.327950984926375 45.45054121367782 0 0 0
2373 2023 24 0 56.934563874133694 16.90035767394369 43.80484415459077 0 0 0
2856 2506 24 0 56.33207275008742 17.003341947456363 49.521635175518504 0 4 0
5450 0 24 0 8.003734960120982 25.68778851835216 46.82078448628594 0 0 0
5905 0 24 0 12.716896212870369 25.30158822680204 44.28604206399662 0 0 0
5408 0 24 0 12.832511911452729 24.13906749404715 49.15339771927861 0 0 0
2082 1732 24 0 17.684392470658008 23.237836874661948 43.296251656054444 0 6 0
5766 0 24 0 22.019906973074235 25.099942362394074 45.7934871739139 0 0 0
5704 0 24 0 17.74977364036374 28.05686322473589 44.63034414577175 0 0 0
3925 0 24 0 18.018163757640185 24.538476932274357 48.54009633898644 0 9 0
5628 0 24 0 25.437268939181646 21.962363024441142 46.01648478420645 0 0 0
3802 0 24 0 29.702821787704753 22.678685804471616 49.69430583256643 0 8 0
4142 0 24 0 25.7389062226717 26.335708424256573 48.68292077910622 0 8 0
6019 0 24 0 29.811449117036656 24.472558100899416 44.47651283493019 0 0 0
2767 2417 24 0 36.279919132173234 22.14699803094695 44.01248841169611 0 6 0
2045 1695 24 0 35.27515081783277 26.539254196596126 43.22578609507525 0 4 0
2686 2336 24 0 33.43103005983776 25.54535816064603 47.72726497690453 0 5 0
1931 1581 24 0 41.13177300426627 24.85162678203864 44.02239871180693 0 1 0
2688 2338 24 0 38.35181448607423 25.125539959615395 49.43539262927921 0 3 0
2729 2379 24 0 42.499117703891315 28.050822705692216 49.64023788126414 0 4 0
1950 1600 24 0 43.74333738091188 23.454455980943933 48.99254861788181 0 1 0
41 1 14 0 50.23377615705162 28.637973657856705 43.719337749591574 0 0 0
1982 1632 24 0 50.37970270564748 21.981035376968247 45.133685521312785 0 3 0
3225 2875 24 0 48.444034771576284 24.938818260952264 49.445602086324 0 0 0
2506 2156 24 0 46.27774727197061 25.337262349351256 45.23676249653237 0 0 0
270 1 12 -1 50.85816128386047 27.71632401132799 46.007483075876124 0 0 0
32 1 2 0 56.91510273585619 26.07218062959403 43.74712431916145 0 0 0
1817 1467 24 0 55.56879227041724 21.669721371940152 45.84690597194173 0 0 0
39 1 3 0 52.75356204175966 26.213231196458885 44.73411740279978 0 0 0
34 1 12 -1 55.89188073202491 27.951434078614255 44.87449810001137 0 0 0
40 1 2 0 56.67615030095265 27.61561458248195 45.38907461950015 0 0 0
3158 2808 24 0 54.57231269559576 25.347715176220284 49.59642339324949 0 0 0
33 1 3 0 58.972935840096795 25.11560458386378 45.347930278047386 0 0 0
31 1 3 0 57.45063469850082 27.68527927739029 46.58549989477764 0 0 0
5120 0 24 0 7.18531985374476 30.640978644281393 47.110636460794204 0 3 0
5792 0 24 0 6.502256337689127 35.89870899745308 48.07128873691775 0 0 0
5753 0 24 0 10.740702081730474 30.026791087517346 43.34963760619914 0 0 0
5830 0 24 0 10.938614508409158 34.29974652231961 50.34767754232985 0 0 0
5579 0 24 0 15.133003282423154 32.19466062459905 45.805663450182635 0 0 0
4010 0 24 0 17.821193053813705 30.40003407318172 49.24399460347125 0 9 0
3983 0 24 0 22.22007216243517 30.297051802410998 46.417493794554645 0 8 0
5933 0 24 0 15.491094894519005 35.81996013625709 48.74370666806558 0 0 0
2723 2373 24 0 27.94009144237299 30.523247213080573 46.10497578519346 0 6 0
4143 0 24 0 24.67148740873384 34.44924387107005 44.28579884357288 0 8 0
5118 0 24 0 28.801111223909317 34.83537849112095 48.776446277291534 0 3 0
1430 1080 24 0 30.5443562242832 34.162597447767354 43.54828703106328 0 6 0
385 35 24 0 34.03938935522114 30.799750359625232 46.98833072334078 0 8 0
1875 1525 24 0 33.53826501868031 35.83878290949781 47.75446298974667 0 7 0
4141 0 24 0 38.79674861244639 29.20327800756761 46.686710177304924 0 7 0
2873 2523 24 0 38.33961104881059 34.135250151917184 44.82848928121621 0 6 0
2247 1897 24 0 43.0969429163311 29.600512977304096 44.69737209791714 0 0 0
2450 2100 24 0 42.208336466456615 33.64252774660981 48.2334544249454 0 0 0
44 1 15 36 48.14514446510165 29.790699637056562 43.35286125175728 0 0 0
264 1 7 0 48.01163944572586 32.788210345107515 47.39031547125645 0 0 0
268 1 8 0 47.72426025633402 29.742504980683925 49.18914281344649 0 0 0
265 1 3 0 47.05755154510852 30.535290535859573 48.20579195378742 0 0 0
20 1 8 0 48.42481166829908 34.87919023365756 44.748200704145965 0 0 0
266 1 12 -1 47.655420929852525 33.170815550578695 44.97962245710119 0 0 0
263 1 6 0 46.114233673180046 32.88704231309352 45.49018565727123 0 0 0
47 2 17 36 51.053351976708846 31.776395521159102 45.34410907501146 0 0 0
269 1 3 0 51.91462032832804 29.401647179681014 49.204908450113955 0 0 0
267 1 6 0 49.80503255240019 31.631363419798493 49.960208998327715 0 0 0
27 1 8 0 52.22007967739113 35.75436627779661 43.98817309409251 0 0 0
2864 2514 24 0 49.32158128999126 35.9431460905246 50.087514447743956 0 2 0
16 1 4 0 53.39117769410023 34.750385529158194 43.63376595135824 0 0 0
3086 2736 24 0 52.98817839895377 34.439319853674355 48.20953390627224 0 0 0
46 2 17 0 53.35872651518767 30.89822134497032 43.540965745279486 0 0 0
28 1 3 0 57.27161984760169 32.747386533532875 44.14222003118776 0 0 0
279 11 20 0 57.7024689609612 32.156475412037715 43.71723662723717 0 0 0
273 1 9 -1 54.60105579734448 30.400191056817565 48.920176927454904 0 0 0
48 2 17 36 53.50822953935161 31.080241391327466 43.87140633199198 0 0 0
30 1 11 0 58.21428318090527 30.745126356005468 46.339027294860365 0 0 0
278 11 16 0 58.58218451756358 31.698641478708126 46.23285868900497 0 0 0
277 1 15 0 56.75633130477381 34.2359245332786 45.67750140189369 0 0 0
271 1 11 0 55.059937279274585 30.09826845071533 49.44360936148633 0 0 0
274 1 3 0 58.8751987653784 33.52927007023537 48.39824479338158 0 0 0
29 1 4 0 54.73815191941144 35.031166984325424 44.298301466699904 0 0 0
26 1 6 0 54.9299947609289 34.77566448985242 44.376824112779566 0 0 0
275 1 11 0 58.785058445640736 35.794108360803506 46.38103929452556 0 0 0
5737 0 24 0 9.701968725719246 6.198459592440529 50.98863177566476 0 0 0
5699 0 24 0 13.13916159163052 5.063532083349771 54.183877783715715 0 1 0
5451 0 24 0 13.440949713406523 0.9452658302217706 51.73286950728273 0 1 0
5202 0 24 0 18.92464734437979 1.6161323068103381 51.961819377085085 0 2 0
5430 0 24 0 16.74712255186461 3.5490345138953168 57.32707233460963 0 1 0
2863 2513 24 0 18.08817803507954 6.951916687796266 53.93678547880678 0 8 0
3604 0 24 0 22.12696513178187 5.76667187296107 56.67288596832756 0 9 0
370 20 24 0 29.167093198577927 0.9740281260329415 50.78482043417735 0 8 0
1943 1593 24 0 27.190681195549864 5.636603129868807 55.64678924730429 0 4 0
5207 0 24 0 29.179654598624563 0.35614594276163586 56.298962914140944 0 2 0
4773 0 24 0 24.36152677462019 0.4892322463657389 51.92656616843422 0 9 0
4199 0 24 0 34.404149740937 0.03219674144893504 52.64270046064592 0 8 0
1884 1534 24 0 36.271255756336714 4.950293512132284 51.800532979691525 0 8 0
2770 2420 24 0 31.33391173476093 4.832493507308094 52.31929136209926 0 4 0
2764 2414 24 0 37.02460461489025 2.407709938112178 56.649146457708035 0 3 0
2629 2279 24 0 39.03894712185778 0.16865182138177934 51.71188855465372 0 3 0
2160 1810 24 0 40.95046077944938 5.655309870655315 53.72166967173908 0 3 0
1993 1643 24 0 43.75604361002807 1.148826507632787 50.86186903814292 0 2 0
2855 2505 24 0 41.6337470342269 0.21043768259802198 55.76439535896641 0 3 0
2158 1808 24 0 45.63393099252692 3.9733146330364364 54.533520668681355 0 4 0
2785 2435 24 0 50.1827013009292 3.6196792990606657 52.535154286052816 0 3 0
2772 2422 24 0 47.939534921376875 0.663435030495222 57.19407749859592 0 2 0
2447 2097 24 0 57.165510992510285 1.7399861216641506 56.61813025532846 0 0 0
2174 1824 24 0 55.2173718370756 4.768998773441504 53.08885695849262 0 3 0
2814 2464 24 0 52.51111606310853 5.02245235118909 57.54434943782253 0 2 0
1839 1489 24 0 52.64868701584671 0.1082005211262156 54.65387909950358 0 3 0
5182 0 24 0 12.381093135672863 10.36695556154656 51.58166728141373 0 2 0
2571 2221 24 0 11.459124430150476 9.421428085103825 56.743489708299464 0 8 0
5549 0 24 0 16.275457756029663 11.419469882638856 56.33056836076125 0 0 0
5607 0 24 0 17.825752827568536 12.31028341603602 51.38829809194134 0 0 0
2735 2385 24 0 21.032208028465334 13.29926980525689 55.72214068401041 0 8 0
2870 2520 24 0 22.14394228156849 9.13051489527112 52.0230209275749 0 8 0
5126 0 24 0 27.874907915913152 9.655191980675188 51.907936787148024 0 3 0
4254 0 24 0 24.638310207583846 13.753629260795327 51.70649544083286 0 9 0
2909 2559 24 0 25.458473951634453 10.586362702540534 56.24519407768321 0 5 0
1898 1548 24 0 31.632254525329927 14.299793863776335 56.99199970580337 0 3 0
5159 0 24 0 30.894425479356016 8.972028400713498 56.85901987788311 0 3 0
5002 0 24 0 32.74274513467396 9.621094484278126 51.74019840511352 0 4 0
2575 2225 24 0 37.11568184226815 14.187603924692585 57.24456929312539 0 4 0
2106 1756 24 0 35.48465530059784 13.75620677302467 51.12763887221637 0 3 0
2659 2309 24 0 40.38900027304489 13.518081488659796 52.72717242012736 0 4 0
2792 2442 24 0 40.65550557746713 10.10987815611893 56.59326196795341 0 5 0
2127 1777 24 0 45.58627783431227 9.247676830157957 54.085444953507405 0 3 0
2108 1758 24 0 50.61498439932696 8.23938299468575 54.39965962355314 0 3 0
2868 2518 24 0 49.647337386180524 13.97017566841286 56.559393611516654 0 3 0
2071 1721 24 0 56.22870785298918 9.21689729651683 50.407443417279566 0 3 0
2483 2133 24 0 59.46592326891134 13.247613062577887 52.18720045038845 0 -1 0
2633 2283 24 0 53.06628892173858 12.09583408910266 52.53094965361872 0 2 0
2790 2440 24 0 55.854555909493584 9.226290201939825 55.574318313563005 0 1 0
1830 1480 24 0 56.628066081707146 14.111538133494061 56.68526572324843 0 1 0
5797 0 24 0 11.13626952922381 15.223239218298119 50.9837380311179 0 1 0
4011 0 24 0 14.99582431839105 17.26820548880597 53.30045650114036 0 9 -1
5139 0 24 0 11.563059589544102 21.058475163829545 53.68407146908041 0 3 0
6229 0 24 0 18.15592077996574 17.13547217817718 57.20376708884623 0 0 0
4993 0 24 0 20.61882037573432 16.922337504352047 51.940293109537386 0 5 0
4555 0 24 0 18.034212295797865 21.2206660748559 54.34598163652651 0 8 0
2836 2486 24 0 29.517467164307202 14.702862444746671 51.73626438949554 0 8 0
5391 0 24 0 22.78568392363493 20.351982271365834 55.96416201376597 0 0 0
2849 2499 24 0 25.849025750085758 15.570063333436421 57.15634464282388 0 6 0
2706 2356 24 0 26.46651410716649 18.589164635972004 52.99110063170099 0 6 0
2012 1662 24 0 28.625197880399714 20.548527067800975 56.58262725406239 0 6 0
2007 1657 24 0 33.07744835696102 20.068277769699385 53.25708917440434 0 5 0
2187 1837 24 0 34.891943694223144 18.583062999538406 57.504078802774565 0 5 0
1978 1628 24 0 38.13250099019631 18.308554514033947 53.193483297769504 0 4 0
2777 2427 24 0 42.2068141337996 16.743215942543504 55.53911648117204 0 5 0
2809 2459 24 0 46.01594200977762 14.833117731258415 52.29966882438051 0 4 0
2134 1784 24 0 46.931056448102126 20.645526341468965 54.363389179337936 0 1 0
1924 1574 24 0 52.98712756210663 16.861038643642082 53.755141571296 0 1 0
2332 1982 24 0 59.392541276292796 19.55746833652755 55.43333438819493 0 -1 0
5597 0 24 0 7.3563565174473515 27.61449438504947 51.54408386498942 0 0 0
5303 0 24 0 21.921604204539257 22.07045791919881 50.557804745297226 0 1 0
2902 2552 24 0 22.126482995443684 27.608175189264976 51.212176780129994 0 7 0
5660 0 24 0 15.100101440049713 24.224088814826903 56.91435359611233 0 0 0
5454 0 24 0 17.314503625905267 27.516142564138303 53.212789453145504 0 0 0
2810 2460 24 0 21.21146181486473 25.653398192627265 55.68406533495985 0 7 0
2811 2461 24 0 26.134688296958327 23.751277711225963 53.02346431903505 0 8 0
2796 2446 24 0 29.91242271483872 28.790286315313793 50.49440408348442 0 6 0
2783 2433 24 0 32.65301782267047 25.026763790682903 53.43444081367183 0 5 0
2728 2378 24 0 35.35620721605917 28.76454971504014 51.54006129551609 0 5 0
2910 2560 24 0 36.08996261010741 27.09467465701463 56.851948413362905 0 6 0
2876 2526 24 0 42.246965516896324 21.707306770523573 53.21532180263839 0 4 0
2096 1746 24 0 37.845728830070065 22.20325017215128 56.22198672261263 0 4 0
2163 1813 24 0 39.93725420466298 28.69503504672334 53.8199701371284 0 1 0
1980 1630 24 0 51.08878962421933 23.422789131770475 54.58280246044476 0 1 0
2623 2273 24 0 48.84155746596888 28.697605914358835 53.13087640569875 0 1 0
2215 1865 24 0 50.74242044997344 28.21363359277152 57.37431579643478 0 0 0
3059 2709 24 0 57.77077941488106 21.77528024480587 51.1707697900362 0 0 0
3084 2734 24 0 59.08864294896086 27.140661629428635 51.467051663400575 0 0 0
2451 2101 24 0 56.83229183501909 24.654767661245714 55.30341960462861 0 0 0
5879 0 24 0 14.099389459225872 35.80155980684949 56.53307949762748 0 0 0
5559 0 24 0 13.065475512373302 29.03060294633795 51.27932171217547 0 0 0
5926 0 24 0 9.902516113258747 31.33680760498062 54.187462029377045 0 0 0
5464 0 24 0 12.969246927455416 29.407735906841147 57.50148948122454 0 0 0
5476 0 24 0 16.08953419270127 32.933455168878275 53.05672788311642 0 0 0
1946 1596 24 0 21.711876289881378 30.953228357344415 54.99740369462749 0 8 0
5722 0 24 0 20.613438885212766 34.3066218971949 50.90387744954808 0 0 0
5504 0 24 0 24.971771357873838 31.70819800938132 50.60375036990868 0 0 0
2581 2231 24 0 26.446862599208632 29.034015186678285 54.40240994634403 0 7 0
4702 0 24 0 28.40927612404565 34.94653841912395 53.70407669554897 0 9 0
2736 2386 24 0 23.878342927102384 35.8193084178014 55.914550497230756 0 6 0
2776 2426 24 0 31.759552778295063 29.368000519206223 55.80640720631752 0 5 0
3700 0 24 0 32.405681520877806 32.78341162232017 51.4441029531449 0 7 0
2184 1834 24 0 35.67495677894223 35.504531478879294 53.93954422459036 0 5 0
2741 2391 24 0 37.660834757371035 32.820380037069604 50.40429338078789 0 5 0
2044 1694 24 0 40.95057932267055 34.26034667556616 53.34050453963268 0 5 0
2620 2270 24 0 44.19424010319531 30.122669959075804 55.88218403787956 0 4 0
3209 2859 24 0 45.97920620875475 32.7304475221916 51.79485834544749 0 0 0
2209 1859 24 0 48.665233136197585 32.93522647903898 56.26553459009887 0 0 0
2545 2195 24 0 54.529705450598925 29.001053401009653 53.939647815986014 0 0 0
1970 1620 24 0 52.764517889436476 33.79017998551651 53.40567217625194 0 1 0
272 1 3 0 57.26208182219321 31.819561830233646 50.6985654163086 0 0 0
2739 2389 24 0 57.62790417725532 32.77721317255473 55.79186896290131 0 1 0
6090 0 24 0 11.114733063444701 3.284517634833762 59.12552234039942 0 1 -1
6111 0 24 0 13.044401715610585 7.059857968140117 64.71183195070107 0 0 -1
5548 0 24 0 15.160778400691513 0.6818077345203477 61.364800182406896 0 1 0
3291 0 24 0 17.9250734872689 4.892635668981639 63.737240237215254 0 9 0
3283 0 24 0 22.907713199577575 3.1357950983867315 62.52749086572929 0 9 0
3429 0 24 0 26.760843281026133 4.884431287375632 64.79037533939507 0 9 0
4794 0 24 0 27.413011489467955 2.996198005259933 60.103794040509975 0 9 0
2073 1723 24 0 31.59145022782982 4.405083091482275 58.38123969537949 0 3 0
2748 2398 24 0 35.608586391718326 4.588801744116265 62.03102954384949 0 4 0
1466 1116 24 0 31.426538355123462 2.492175064562513 63.7922146272187 0 7 -1
1863 1513 24 0 34.321473647153184 0.08095955092687032 59.88593526618504 0 7 0
2681 2331 24 0 41.25155768264061 4.72607307456659 58.73511998969524 0 3 0
2015 1665 24 0 43.91781482977521 4.882355172117646 62.68383407709952 0 4 0
2595 2245 24 0 48.9164871318123 4.0311826633573515 60.880849692987354 0 4 0
2803 2453 24 0 54.442908285899094 1.5010779824373204 61.50738325062766 0 3 0
2839 2489 24 0 58.595466150386 6.295372208925648 58.27030635562619 0 2 0
2690 2340 24 0 57.94088019488665 4.8609823087068325 63.27608235741609 0 2 0
5595 0 24 0 11.6110086952957 11.206269008425881 61.644811882259326 0 1 0
6147 0 24 0 15.139003819110139 7.801174707823833 59.90831950353201 0 1 0
4528 0 24 0 20.037918598873603 9.249945970979404 59.5578978032255 0 9 0
5710 0 24 0 19.021354894191074 14.29859001241144 60.79292912857615 0 0 0
5026 0 24 0 22.057316656486258 7.9254905227086265 64.11612064856625 0 5 0
1828 1478 24 0 25.926323560124835 7.447339435814009 60.44770577002083 0 7 0
2107 1757 24 0 24.306928775997047 12.071691380578393 61.01125934390189 0 8 0
2806 2456 24 0 29.161350000185617 12.324817258548538 60.83666716605488 0 7 0
2782 2432 24 0 37.02155450174909 7.210364047985939 57.78789180698982 0 4 0
2033 1683 24 0 30.78456579987036 7.5458902483409975 62.24161964632593 0 6 0
2173 1823 24 0 35.31920787250459 10.601797167779775 60.3769045162672 0 6 0
2113 1763 24 0 32.3685005783563 11.469939761269025 64.49172707713909 0 6 0
1963 1613 24 0 39.273335878250656 8.150394449315138 62.26018059688973 0 4 0
2657 2307 24 0 43.59634763496895 10.076385555402808 63.008838208823654 0 4 0
2691 2341 24 0 40.14938523962517 12.985845852230995 60.8152482625444 0 4 0
1929 1579 24 0 44.90091913477475 12.882107948883593 57.87682411866894 0 4 0
1935 1585 24 0 45.556132432053914 7.362528474288269 58.55424788296095 0 3 0
1894 1544 24 0 51.12499526680007 9.414580712027359 59.06019893926309 0 2 0
1971 1621 24 0 48.24878153411018 8.48602325751251 63.30806227979791 0 4 0
2793 2443 24 0 48.713602279460375 13.615736041018748 61.84900766243808 0 3 0
1965 1615 24 0 53.73194859636236 7.378916476008105 63.15579965260072 0 3 0
3008 2658 24 0 58.259966975575665 9.82962156954109 61.62974945879486 0 0 0
2773 2423 24 0 53.9669564148138 12.665121675035676 61.991722920962026 0 2 0
5981 0 24 0 11.846617487026306 14.521397898067763 57.86880769235729 0 0 0
5350 0 24 0 14.241683357674436 20.133364825227655 60.543447008728585 0 0 0
5809 0 24 0 14.972602272003304 15.052249947183958 63.220008920724325 0 0 0
6226 0 24 0 10.244763470400107 16.4936012184096 63.16213135439593 0 0 -1
5767 0 24 0 22.532473559171702 17.619279162220604 60.96382618732496 0 0 0
2905 2555 24 0 25.337209978614684 16.857754709878453 64.67750166646363 0 7 0
2112 1762 24 0 29.61175316372405 21.50344408430038 63.91781919036137 0 7 0
4988 0 24 0 25.898483305838788 21.194486268544384 60.89004837456809 0 5 0
2893 2543 24 0 29.55333009970185 17.58404519266554 60.575208955098745 0 8 0
4923 0 24 0 34.11722406330538 15.376376832978146 61.67602764438461 0 5 0
2653 2303 24 0 34.34594590778566 20.436539430284455 62.56282359695882 0 6 0
2898 2548 24 0 42.62762449927753 16.647130289779692 63.78995473888904 0 4 0
2117 1767 24 0 39.04268936916259 18.18933532188544 60.31417436957951 0 5 0
1952 1602 24 0 52.060882450420685 17.059911793568443 59.482913382217646 0 3 0
1974 1624 24 0 45.50556023550435 17.59645617580733 58.840868740156374 0 4 0
3024 2674 24 0 50.50924019645622 21.49824232249284 63.87345410944759 0 0 0
2916 2566 24 0 48.71513835144319 20.910325788124876 59.39460584981428 0 0 0
2579 2229 24 0 47.609594849041486 17.66509430401879 64.24201071755341 0 4 0
2186 1836 24 0 57.04918849424278 18.086922555905286 60.310110509595326 0 1 0
2539 2189 24 0 53.417253259083814 17.588575914992397 64.72186954090917 0 0 0
6166 0 24 0 7.140430109040685 26.124753719414436 58.96595003300988 0 0 0
5817 0 24 0 14.000780468133621 25.60315287021087 61.65453445643171 0 0 0
5383 0 24 0 19.42481828338082 21.727850565419327 59.617897398573255 0 0 0
2043 1693 24 0 19.686535621002122 23.378795158613176 64.21540448227407 0 8 0
5743 0 24 0 18.45612340394267 27.502542056461596 61.68078974712301 0 0 0
6124 0 24 0 23.052790828794198 25.3624426109121 60.65659260796109 0 0 0
4774 0 24 0 27.52918321666129 27.476710596923372 58.72124447133438 0 9 0
2101 1751 24 0 32.81481326685976 23.10245679802448 58.148293175198425 0 7 0
2669 2319 24 0 32.84090543000229 25.75079025230907 62.317273357958186 0 7 0
1843 1493 24 0 43.020306875155136 22.187090402439008 59.13684102536238 0 4 0
5123 0 24 0 37.75422768038726 24.708417753217084 60.618496270566226 0 3 0
1847 1497 24 0 42.86025541737264 27.909021014892723 60.57009664742771 0 4 0
2137 1787 24 0 40.43615060492343 25.9789843328421 64.6053232235256 0 4 0
3157 2807 24 0 46.86827058982709 25.116029864414465 57.73983537082266 0 0 0
1966 1616 24 0 46.4436725625955 24.76644140082541 62.97577538805159 0 2 0
2711 2361 24 0 51.617885260731406 25.24809388427929 61.19936178341461 0 1 0
2594 2244 24 0 54.12157884516818 21.86326001977993 58.52180171313254 0 0 0
2794 2444 24 0 56.043300472371406 21.785273757018533 63.7798015496185 0 2 0
3190 2840 24 0 55.76381851618177 28.110204809477118 59.12650841802007 0 0 0
2616 2266 24 0 55.62474626174508 26.962538253648145 63.76525853675513 0 0 0
2824 2474 24 0 59.12623099813225 24.111626481441483 59.493138912134995 0 0 0
5963 0 24 0 9.728379657227416 32.65046002508725 59.12453730923464 0 0 0
5952 0 24 0 14.153001076233627 32.97240898590308 61.13965838726797 0 0 0
5666 0 24 0 11.461470349876393 35.982402062978004 64.62983203521989 0 0 -1
5415 0 24 0 17.761644196391895 31.05606096435548 57.788985978642295 0 0 0
5847 0 24 0 20.023434158490982 33.321859919283625 62.51220290859991 0 0 0
3597 0 24 0 27.22406767493456 29.644809083190047 62.97227169768101 0 9 0
4400 0 24 0 23.990356372922072 31.765210757141137 59.389115676877665 0 9 0
5210 0 24 0 28.374380580939757 32.90433423152166 58.08805577444647 0 1 0
3427 0 24 0 28.48360266127732 34.871005518922765 63.33693141504639 0 9 -1
2077 1727 24 0 33.94977223857367 35.81355982075328 62.41996089203896 0 6 0
2569 2219 24 0 32.23716964923348 31.58598201030874 62.42299343063994 0 8 0
2761 2411 24 0 35.21972050315463 32.294537579632205 58.677951471310585 0 5 0
5077 0 24 0 37.16022327201778 29.547522293163116 62.66088002105635 0 4 0
2769 2419 24 0 40.23786110843161 32.413781472336154 58.26235987949288 0 5 0
2598 2248 24 0 38.94405865040293 34.200903310570034 62.85278774053997 0 5 0
1832 1482 24 0 47.69768640318254 29.19575694249723 64.39962515719938 0 1 0
1995 1645 24 0 48.25202907764223 34.15456473066642 64.48738001974895 0 3 0
2804 2454 24 0 45.55594508396276 32.569916629826174 60.47456428784348 0 5 0
2984 2634 24 0 51.67890963911719 30.286881163311325 62.30310079580938 0 0 0
2670 2320 24 0 53.092179901466096 35.17872617577208 63.55964490259399 0 1 0
2583 2233 24 0 53.469460656609535 32.60872164916436 58.45947777088473 0 4 0
1917 1567 24 0 57.240459021466975 31.861141481761667 62.925647037370666 0 0 0
1859 1509 24 0 57.234934349739355 35.985924837867394 59.44053968934233 0 0 0
5593 0 24 0 7.475398860654439 0.12823906325823356 69.11473134304605 0 0 0
3702 0 24 0 10.019608833481625 5.387015080616966 68.56572972315173 0 9 0
5901 0 24 0 14.75579489811866 2.6198085225703602 67.6479943783207 0 0 0
4907 0 24 0 19.546143324180157 5.23359325180557 69.47736790443483 0 9 0
5603 0 24 0 20.21163492780859 0.1095696263439557 70.11343779226677 0 1 0
5251 0 24 0 23.699246668698137 2.0324305505375637 67.54993266038116 0 1 0
5137 0 24 0 28.12083290247244 3.194887397476997 69.64516327464314 0 3 -1
1850 1500 24 0 33.99769633209575 4.720980824459476 70.13109770033506 0 4 0
1846 1496 24 0 39.214377140949274 4.310925184838378 65.75372349362331 0 3 0
5019 0 24 0 39.25250543917525 5.608641143475854 70.97954233326335 0 4 0
2130 1780 24 0 44.516525065858566 5.077356340307096 67.90794369721874 0 3 0
1298 948 24 0 43.65021589122443 0.8584440855421802 71.03686237022502 0 3 -1
2177 1827 24 0 46.33725716048499 1.2434652891605738 65.50035835895696 0 2 0
2034 1684 24 0 52.17510175774628 2.0683105745460257 70.28988147640312 0 4 0
2025 1675 24 0 51.21634918198054 2.957552832168334 65.46732026682064 0 1 0
516 166 24 0 59.65434802569756 7.12971188714858 68.46288757579146 0 2 -1
1857 1507 24 0 56.45143527842655 1.8402891361848288 67.15874384963139 0 1 0
3124 2774 24 0 54.0253044970057 6.902939250174354 68.7754565679333 0 0 0
5402 0 24 0 13.447568754609831 13.236339190613583 71.74753649597179 0 1 -1
5453 0 24 0 12.512122763425207 12.298240778779135 66.51611673738269 0 0 0
5757 0 24 0 14.775288629593435 8.25029459658676 69.36200408010116 0 1 -1
6115 0 24 0 9.341641335273867 10.030298009148659 70.51799584652743 0 0 0
5606 0 24 0 17.024218003742813 10.239298661450523 64.83817140328253 0 0 0
2074 1724 24 0 21.27005970020496 13.435398857803476 65.0143896250152 0 6 0
4206 0 24 0 19.509571058936114 10.160186359209382 68.79938374327976 0 9 0
2908 2558 24 0 26.906783757042678 9.87338146298499 64.84849940368899 0 5 0
2028 1678 24 0 24.112222860891336 7.374743545864674 68.73071673656689 0 6 0
3265 0 24 0 27.892742376565717 7.684823262107103 71.96465372437947 0 10 -1
5005 0 24 0 24.045165432717962 12.066563224592308 68.45899685327734 0 4 0
2743 2393 24 0 29.128563802179364 11.936127551748632 68.77875456188269 0 7 0
2563 2213 24 0 30.75204473116202 7.473252569446929 67.1076907015603 0 5 0
2733 2383 24 0 33.20928028535161 10.07084820829326 71.50263009844903 0 4 0
1960 1610 24 0 36.2807530420266 8.338266965531002 67.26083339347969 0 4 0
2176 1826 24 0 34.24231449843944 13.939128180496189 68.08368472001075 0 6 0
2140 1790 24 0 38.59140484833978 12.58811035611076 64.98304259179594 0 3 0
2784 2434 24 0 41.26862916936156 8.746916257316778 67.4806825613642 0 5 0
2026 1676 24 0 41.48196322813079 13.919493272715371 68.78662338044184 0 4 0
2627 2277 24 0 44.984039265573344 10.348790688334324 70.8858699415554 0 4 0
2701 2351 24 0 37.70168955352295 12.579291415055811 71.7575174157804 0 3 0
1357 1007 24 0 48.986417665786945 7.738634149146799 68.22659389288852 0 4 -1
2712 2362 24 0 51.54074031660712 11.849800117840747 71.69235433101001 0 3 0
1908 1558 24 0 46.8358780480831 12.480121555804752 66.36079405726394 0 4 0
1979 1629 24 0 51.659380564533386 11.695324443588717 66.04346504501551 0 1 0
2265 1915 24 0 59.84760581920603 13.987683058038794 70.24240559943392 0 -1 0
2677 2327 24 0 56.50967117029526 10.543896287907756 66.31171057272617 0 2 0
2574 2224 24 0 54.88189028352512 14.294833142467873 69.13356204219671 0 1 0
5287 0 24 0 13.744321586466173 19.408998865089874 65.47403393639298 0 1 0
6159 0 24 0 11.134719478909652 16.89800234042014 68.76975818291112 0 0 0
5199 0 24 0 18.706722686648572 17.94281658976744 65.02463748043387 0 2 0
5799 0 24 0 16.901492882757747 14.693681620920641 68.59089577909849 0 0 0
5265 0 24 0 21.014814990574443 17.29116321035203 70.15922040009974 0 1 -1
3470 0 24 0 23.034382022327232 20.75113559398521 66.3010759892713 0 8 0
1841 1491 24 0 27.496030238557953 21.010879737324874 67.97971806683438 0 6 0
2899 2549 24 0 26.66956290492797 16.73029992602126 69.89900577386825 0 5 0
4473 0 24 0 29.768150590845565 15.896506314310432 65.93325717624889 0 9 0
2613 2263 24 0 36.249243166709086 19.174046935314195 70.92228223539568 0 6 0
1996 1646 24 0 37.25175500716705 17.634058744323493 65.57617102148151 0 5 0
2887 2537 24 0 32.7557014595345 19.778220874138484 67.47085598321911 0 5 0
2857 2507 24 0 44.302459981563956 18.100366193253997 68.80836425335279 0 4 0
1918 1568 24 0 50.43226110175651 16.458741967970102 69.0730502549733 0 2 0
2599 2249 24 0 51.71135707154046 20.918423037787374 69.37032681771127 0 1 0
2168 1818 24 0 57.79111601154689 14.722687915382162 64.85215922891679 0 1 0
1355 1005 24 0 56.56915895286681 19.25776736085861 70.04922182551758 0 3 -1
6003 0 24 0 9.380841497957883 24.52307745865237 68.01851833002384 0 0 -1
5316 0 24 0 13.728994188921872 21.88230997269338 71.94451732438353 0 1 0
4524 0 24 0 18.108325199704776 21.964298576698322 69.21749368875183 0 9 -1
5584 0 24 0 15.56311962748268 25.916609257334713 66.6623830592983 0 0 0
5610 0 24 0 19.468896676434152 27.063152556044617 70.1497180253408 0 0 -1
2775 2425 24 0 22.20014953853192 27.826508949659626 65.70543721026628 0 8 0
5380 0 24 0 26.04619385717863 25.05104434807339 64.84722492481484 0 0 0
5235 0 24 0 23.901406849981626 24.69690620854075 69.63287692761365 0 1 0
4953 0 24 0 27.119373909785125 28.417992752620872 68.22984948342689 0 5 0
2843 2493 24 0 30.760397092809562 25.45683722120295 66.88884353913855 0 8 0
4937 0 24 0 31.515221620975193 27.98946902805582 71.1441864229282 0 5 0
2050 1700 24 0 34.4953764030077 28.574792621001023 67.2608977427478 0 5 0
2705 2355 24 0 34.44035055487256 24.015869182117065 70.27838265460495 0 5 0
2878 2528 24 0 43.19781847000682 21.804576612844812 65.20952935914093 0 2 0
1829 1479 24 0 38.51131373322878 21.980313141471125 66.6329925700761 0 4 0
630 280 24 0 43.055807408011354 28.005170884730436 71.76440772222733 0 4 -1
1864 1514 24 0 42.7008377630921 23.281958376705585 70.73285234886725 0 1 0
2758 2408 24 0 38.63631977020436 25.965241703967493 69.31767165046733 0 5 0
2061 1711 24 0 44.29142355704719 26.927440849501366 67.32517101054201 0 4 0
1905 1555 24 0 51.40905923807538 27.96817506113378 71.19052112201301 0 2 0
2582 2232 24 0 47.13624164136918 22.631510579637954 67.98679437500094 0 2 0
2835 2485 24 0 50.92861487212782 25.825395750047075 66.82696702110175 0 2 0
2615 2265 24 0 59.48254652766473 24.118007604463532 66.1870762323032 0 3 0
2063 1713 24 0 55.591877367410866 24.182040944715517 68.61046239541388 0 1 0
5449 0 24 0 10.111645732162371 31.0514484795091 70.50521568387067 0 0 -1
6099 0 24 0 15.779923416959104 30.60142244264402 65.24743996388231 0 0 -1
4317 0 24 0 15.514729971600818 29.380820439040562 71.07247990320944 0 9 -1
5578 0 24 0 15.021275549008392 34.319619792677685 70.4654645500409 0 0 -1
5561 0 24 0 19.549685428887276 31.755296952366276 67.62572606728442 0 0 0
3603 0 24 0 23.513513002201606 30.593007695847724 70.7939599157269 0 9 -1
4212 0 24 0 26.31541695633876 35.27656922196447 70.89432229503264 0 9 0
4592 0 24 0 24.14325774202854 32.153406632297795 65.88803819317171 0 9 0
1401 1051 24 0 32.00628559128688 35.16998185082337 70.67090169761799 0 8 -1
5172 0 24 0 35.28709155621722 33.402692231246114 67.34952066795452 0 2 0
2833 2483 24 0 37.44229958133754 32.87203829536353 71.7873589289626 0 5 0
4998 0 24 0 30.51708117799351 31.666820155395712 67.96842937361092 0 5 0
2765 2415 24 0 39.49003711906653 30.522552553826394 68.1502419341102 0 5 0
2591 2241 24 0 43.43264783251658 32.56121668353379 65.06349022033662 0 4 0
2122 1772 24 0 42.95665958234524 33.42620531317196 70.44823542193768 0 3 0
2638 2288 24 0 47.896851301751006 31.57853410344589 68.93548482051015 0 1 0
1306 956 24 0 50.90603017894747 35.682818000205444 68.64318821732105 0 2 -1
1267 917 24 0 56.400827157723974 31.43833386427004 71.26769086353985 0 1 -1
2851 2501 24 0 59.007309671010184 28.802652966167056 67.44834709226976 0 1 0
1853 1503 24 0 52.62275613134174 30.8017463584085 67.57921086812297 0 1 0
2952 2602 24 0 57.279937393532116 33.96253315666509 67.16981545764283 0 0 0
5374 0 24 0 11.209019406916672 40.66635583625846 5.78939106518133 0 0 0
5803 0 24 0 13.341609676052478 38.938842766657004 1.7834110778779977 0 0 1
5274 0 24 0 7.577178064533567 42.67149399645013 2.6279893868977813 0 0 0
6022 0 24 0 8.840848002218454 36.93731354407511 3.2786605396321953 0 0 0
4189 0 24 0 20.870843108354592 41.21067968314024 3.3281197771241917 0 9 1
5580 0 24 0 16.76964403168251 40.169364527402465 6.369540097054936 0 0 0
3426 0 24 0 20.90515055011814 37.46015059280686 7.11536964941307 0 8 0
423 73 24 0 28.044018368048675 41.28545715929362 2.265485843167325 0 7 0
4249 0 24 0 25.19299368077147 39.24707074949671 5.691084214314296 0 9 0
5457 0 24 0 22.73171501349332 36.587683534129184 2.1866987337259447 0 0 1
1273 923 24 0 29.09554377925254 36.17973415482084 3.4084632958076937 0 7 0
5333 0 24 0 31.174933276654166 40.08786905774652 6.407539797801521 0 0 0
703 353 24 0 34.98688692385672 42.48051424919368 3.577488203510292 0 5 0
2631 2281 24 0 32.22131319916889 39.20991845892258 1.0008367748419005 0 7 1
5158 0 24 0 35.193910165714406 36.37738822716785 3.798902727899897 0 2 1
2890 2540 24 0 40.12499161582143 40.10626143820242 5.911322860156895 0 7 1
2190 1840 24 0 44.53762516670468 38.405432253387545 3.8050202450283233 0 3 1
502 152 24 0 43.79912059293108 43.18133278539719 4.508661321023104 0 3 0
2760 2410 24 0 42.09312407373571 39.159140083077475 0.0939408025452627 0 5 1
5058 0 24 0 40.302952713104375 36.05648464705065 3.437774711758926 0 3 1
2172 1822 24 0 48.87053624140014 41.57753276934745 3.9674495020684266 0 2 1
694 344 24 0 51.031526129100484 38.768341735671804 0.6902718545158978 0 1 0
1992 1642 24 0 49.228779788368406 36.343788100904916 5.089999924315009 0 2 1
532 182 24 0 55.558332625349635 41.008319571385485 2.3972390763987943 0 0 0
2226 1876 24 0 58.00929839867635 38.298279609645505 6.799772331132256 0 0 1
481 131 24 0 52.512828055741195 39.53595268638883 6.738367970112831 0 1 0
790 440 24 0 54.65295207789038 36.21031242542345 4.318040936894321 0 0 0
5591 0 24 0 10.523924086821337 48.565187829493496 2.1338365614912 0 0 0
4496 0 24 0 13.29170010599893 48.446432734454675 6.784153394594655 0 8 0
5349 0 24 0 14.32968756408103 44.15021922940849 3.35162003034184 0 0 0
5301 0 24 0 16.97459999202377 49.86985929813297 3.8069978219999894 0 0 0
4766 0 24 0 20.55957017721242 45.94954056084144 3.6317585259698575 0 8 0
5127 0 24 0 25.73656197140667 45.70491661613948 4.650428286091276 0 3 1
2755 2405 24 0 27.22211626296985 48.80994056522766 0.8959467868685703 0 7 1
5144 0 24 0 27.67872212708889 49.43268082087894 7.02381683353501 0 3 1
2154 1804 24 0 30.7521046538451 45.41618486173983 0.3140101988429201 0 7 1
412 62 24 0 30.66768509661986 45.50474832131655 5.248755894723639 0 7 0
1277 927 24 0 35.94661462164854 47.50273095497998 2.7676586251211437 0 6 0
4972 0 24 0 39.67482801988247 44.36705790452619 0.5494553090193611 0 3 1
2886 2536 24 0 39.17339136292395 49.91415105953378 6.01849115850999 0 3 1
646 296 24 0 46.638503210242526 48.543963085151766 2.6328190444473263 0 1 0
564 214 24 0 51.45075228667546 43.911980973835725 0.5391443517073167 0 3 0
436 86 24 0 50.581824822154765 48.747978829968254 6.134602289388802 0 2 0
1365 1015 24 0 53.08910376143873 44.51538225068507 5.275939913691582 0 2 0
640 290 24 0 53.8249868502255 48.589595518207716 1.8756724753606453 0 0 0
389 39 24 0 57.304281890676876 47.35584530237042 5.04485217845907 0 0 0
6123 0 24 0 8.327653772723005 52.80635047558316 1.9861891904507099 0 0 0
5571 0 24 0 13.25532913459508 53.16347805526297 3.3876857443410224 0 0 1
3439 0 24 0 17.920625779888972 56.01653137915128 5.788922496966214 0 8 0
5512 0 24 0 17.83334990407648 54.000780053946734 1.3000616039552264 0 0 0
1375 1025 24 0 22.408429356475832 51.855601626599324 3.4127667605154155 0 7 0
515 165 24 0 23.983378152517115 56.6642678332525 3.005372545642806 0 5 0
737 387 24 0 27.201220601767645 52.998477060720006 3.0743761651836343 0 5 0
3907 0 24 0 31.757807725944883 50.42845331426952 2.81903519160801 0 8 1
1902 1552 24 0 36.32352991993875 53.36136717215035 3.186746044080048 0 4 1
1851 1501 24 0 31.561450095706522 55.379706143817494 3.0677667522579894 0 3 1
5060 0 24 0 41.851964787195186 50.51132290266382 1.831836789768679 0 3 0
2046 1696 24 0 40.14723505151344 55.67175551874539 5.893633648309214 0 2 1
1443 1093 24 0 43.99410983367957 51.971877184213646 6.604852297541683 0 2 0
2797 2447 24 0 39.95414329096869 54.92218819756721 0.07737849804895978 0 6 1
2062 1712 24 0 44.55477709029904 54.893162549201314 2.9429276526183465 0 3 1
1177 827 24 0 49.125395271743514 52.49959610359475 3.598275285817823 0 2 0
543 193 24 0 51.99713993842347 57.31995447334716 3.146364492544629 0 1 0
1849 1499 24 0 55.15734528272998 52.046557856212104 5.190833247347819 0 1 1
1320 970 24 0 58.70436091089929 51.355834313956514 1.9107760784728203 0 1 0
1362 1012 24 0 56.87835768945617 56.066940428013936 2.270267789308978 0 1 0
2161 1811 24 0 53.24008479055497 53.52347933184575 0.3196093078932394 0 0 1
3788 0 24 0 5.197893473566329 60.67640067126905 6.421801101828289 0 8 0
6063 0 24 0 5.976997824225428 59.84156935024002 0.002140625838876531 0 0 0
1852 1502 24 0 9.071334583409536 58.41234405843162 4.219073807179011 0 7 1
5707 0 24 0 7.953066809436768 64.19313985590733 2.939881204095898 0 0 1
5554 0 24 0 12.019665437997416 61.29766128847835 1.0673878550547176 0 0 1
5339 0 24 0 15.815416961155208 60.44389408033855 4.28037067897054 0 0 0
6011 0 24 0 20.36869737415708 62.94920926178042 4.4224810503565735 0 0 1
1106 756 24 0 20.05479806386787 59.076969419441035 0.768433542942086 0 6 0
544 194 24 0 17.865337082572573 63.63703856644084 0.33107650362901697 0 7 0
1167 817 24 0 29.16245869935514 59.27054962612896 0.21280782032330395 0 6 0
5519 0 24 0 26.898374921522997 57.74100580958892 6.963210730968951 0 0 0
4217 0 24 0 25.188371357575043 61.43505620416266 2.881668724667796 0 8 1
3915 0 24 0 28.965763263605496 62.42773077447851 6.809805739194384 0 8 0
1955 1605 24 0 35.24177985564688 57.794756823580116 0.5765469827748343 0 3 1
5119 0 24 0 30.40548514441487 64.43955538607503 0.4293713160870684 0 3 0
5366 0 24 0 32.573753650065385 60.912385795961086 3.7383669583699146 0 0 1
1138 788 24 0 36.6282871848607 64.00670704375983 3.0012422880756655 0 6 0
595 245 24 0 37.8060418307391 59.985685324092444 5.119150621532231 0 2 0
1160 810 24 0 44.12899225431872 59.77371906846336 3.6302213210284173 0 4 0
1415 1065 24 0 41.058475863223585 63.9756031956781 4.878181439151464 0 4 0
697 347 24 0 40.25275284327807 60.23905494154631 0.9164483287945264 0 5 0
2641 2291 24 0 44.00191855001688 64.25220353206414 0.9339730354890948 0 5 1
2889 2539 24 0 48.848729577287145 61.412985798377896 1.4416626925397014 0 2 1
682 332 24 0 45.92821152762921 64.42327798417116 5.774212975078031 0 2 0
1220 870 24 0 52.025794479816696 64.61682474583145 7.045975269516853 0 3 0
675 325 24 0 54.42725153666371 61.315412365757865 1.5894005740210142 0 2 0
398 48 24 0 57.86030711563215 64.55922629260114 6.0665216359620455 0 2 0
1215 865 24 0 54.324902882364995 60.253625843028885 6.657117605274217 0 2 0
1461 1111 24 0 58.867998734639094 60.34624430616766 3.7566829412349727 0 2 0
5852 0 24 0 4.433842986772515 65.64149437923939 6.552276145648145 0 0 1
5623 0 24 0 6.640522472985345 71.54684897434683 6.59746230531107 0 0 0
4523 0 24 0 8.345570161568016 69.34008309357833 1.6171755259727778 0 8 1
5975 0 24 0 10.50154588423604 67.34908644420995 6.394349651392555 0 0 1
5667 0 24 0 12.870353359554235 66.79551430153197 0.21911600437833817 0 0 1
5586 0 24 0 15.331656914215445 65.4438939847254 4.5549162379917645 0 0 0
3893 0 24 0 17.397667802270195 69.56949075044864 1.1561320351298128 0 8 0
5572 0 24 0 21.616236292950376 67.27230905022569 2.336803479881675 0 0 1
5379 0 24 0 19.346636968799658 67.50293098260666 6.7630682433840725 0 0 0
1146 796 24 0 26.380238728798215 65.98956330086311 2.6192373789127963 0 6 0
1166 816 24 0 29.663656870606925 69.39817031236932 2.3665782585584862 0 6 0
623 273 24 0 23.92437263814999 64.82435004104121 7.1477123950051045 0 5 0
1202 852 24 0 32.07644114979167 66.15510297610962 5.5400057661693936 0 6 0
5456 0 24 0 34.8553203923309 69.16214935159586 2.400017272707181 0 0 0
1156 806 24 0 31.3418266175665 70.75690232015644 6.848903479199288 0 6 0
3323 0 24 0 36.92973717864742 67.81945530939498 6.602339771322801 0 8 0
2586 2236 24 0 39.66430783145574 67.06124487494323 0.07224319992049588 0 3 1
4054 0 24 0 42.80919702937181 68.38427840770674 6.921449009808783 0 6 0
1231 881 24 0 39.70356216106043 71.24342819967974 3.657960329884814 0 5 0
2040 1690 24 0 45.70624222480721 68.52706759382217 2.4352120010440523 0 2 1
1305 955 24 0 49.9900128196656 65.97961464076783 2.5838257059648133 0 3 0
1245 895 24 0 49.569472363846806 71.6263361773112 2.4108387450867297 0 3 0
1349 999 24 0 48.06545735805401 68.97590033930906 6.5768153677392664 0 3 0
639 289 24 0 53.99695109593882 68.42848192726638 4.121597816033614 0 0 0
372 22 24 0 58.42884485697562 70.70438214739495 6.482789415553088 0 0 0
2823 2473 24 0 58.05217394965753 70.72606276089063 1.2890996323574837 0 0 1
1123 773 24 0 57.45181300234998 65.60967609999796 1.0234772839453172 0 3 0
5285 0 24 0 9.620992627492878 37.04079982587547 13.303500854188217 0 0 0
4728 0 24 0 8.412237599232613 40.08820095560074 9.227274976692785 0 9 0
5258 0 24 0 14.000882172475881 38.49906990114615 10.155198999729915 0 0 0
5900 0 24 0 11.88606321914417 42.34307847625468 13.791585393427544 0 0 0
3784 0 24 0 19.741194031450167 38.07607015011309 12.092293234506311 0 8 0
5564 0 24 0 21.836785128060036 42.74129192512942 7.9168305908762475 0 0 0
5625 0 24 0 17.1604853889284 42.27385307487154 11.194511745530626 0 0 0
5857 0 24 0 24.340752071905293 38.66420449049576 10.658885573730574 0 0 0
4772 0 24 0 29.066131052536566 39.376175969086134 14.10165010519513 0 9 0
5804 0 24 0 27.692218898591687 42.940499359127074 8.799568317095732 0 0 0
5775 0 24 0 24.22923471839869 42.29443115182614 13.921663788263405 0 0 0
4315 0 24 0 29.659940307551334 36.977211301698546 9.998973414419522 0 9 0
500 150 24 0 35.34433858890092 39.44904693529598 8.81044239574941 0 6 0
557 207 24 0 35.530360675952586 41.33514528608766 13.134230335612742 0 6 0
4434 0 24 0 39.72156681104258 38.7265331270251 11.90632274854391 0 8 0
1252 902 24 0 43.608553828272896 41.85763257994826 9.93045208431247 0 6 0
1441 1091 24 0 43.82766089273781 38.47610671805098 14.04947404431264 0 5 0
587 237 24 0 41.49382208394243 43.132814005235126 14.239807736111942 0 5 0
2766 2416 24 0 43.74574925599739 37.18620325408056 8.364289313763623 0 3 1
1326 976 24 0 47.760733612815386 39.87543421838626 8.379552690836002 0 5 0
435 85 24 0 52.36847625102314 41.94006183929915 12.004974426993925 0 5 0
1445 1095 24 0 49.92295100453553 36.51964099388014 11.13589823467924 0 2 0
1011 661 24 0 55.47554432107051 38.55283235065054 10.82500043081326 0 0 0
1035 685 24 0 56.77367087290167 42.58948315687395 8.292217619403017 0 0 0
6009 0 24 0 6.932008169428753 43.39160229743727 12.184472494342806 0 0 0
5964 0 24 0 13.060388389364208 43.98458101741253 8.97394401310789 0 0 0
5854 0 24 0 10.63623544617173 47.15007928484497 12.193948557650176 0 0 1
3594 0 24 0 15.869934782497962 48.63242002587309 12.223859834531304 0 8 0
4083 0 24 0 17.48785368293289 45.85939643399984 7.960442281107101 0 7 0
1197 847 24 0 20.799399421578237 45.75456282150177 13.537862759896983 0 8 0
537 187 24 0 20.32691514560855 49.596266573747904 7.281546881920105 0 5 0
5323 0 24 0 24.384314698463662 46.94056442725911 9.45108224475818 0 0 0
3995 0 24 0 29.858572676321785 47.63099861080042 11.054013574397272 0 8 0
5001 0 24 0 29.247121204379628 44.25295362242518 14.189604513614652 0 4 0
729 379 24 0 33.19182391977619 44.19161138754854 10.094011522092153 0 6 0
671 321 24 0 33.38968723716471 49.47658601899081 7.435426609955245 0 5 0
1179 829 24 0 37.24273759402846 46.02313994033776 11.550694602223496 0 7 0
1285 935 24 0 37.826440563264946 44.16027566842898 7.355675711186266 0 5 0
1149 799 24 0 43.05656013131104 46.80825005997427 8.049860814105221 0 2 0
608 258 24 0 40.64424190651412 49.85929533044604 10.898952493256825 0 7 0
499 149 24 0 45.05483756942338 46.43260253710391 12.279464188821597 0 3 0
2771 2421 24 0 47.77420916282029 44.74334477002376 8.785229113596838 0 3 1
444 94 24 0 49.85604392741956 47.65269965852433 12.500357047965798 0 1 0
831 481 24 0 56.1379223173731 47.40811365207543 9.78000191676726 0 0 0
1367 1017 24 0 57.86715181369012 45.17858879861101 13.880170728867931 0 1 0
6122 0 24 0 9.750239287730627 51.913055284626644 8.138578820490238 0 0 0
5959 0 24 0 10.939867298426035 52.32769234946224 13.736150290777221 0 0 0
5509 0 24 0 15.597708716782202 52.53582070624586 8.551237211653525 0 0 0
4573 0 24 0 21.001091329499292 50.78807224837215 12.101914083020391 0 7 0
3796 0 24 0 18.6322943287617 55.03716430298877 11.17818312776704 0 8 0
3329 0 24 0 22.69572080396017 54.200003783192166 8.404093990974696 0 8 0
5040 0 24 0 23.51954939922542 56.848452408311005 12.546314545359815 0 4 0
376 26 24 0 26.237189257899363 51.945640839935415 11.166177091430269 0 5 0
5259 0 24 0 34.130041090529176 50.64247816630423 12.133381272985265 0 0 0
397 47 24 0 30.386620749147703 53.50833378325025 8.355796366709127 0 4 0
698 348 24 0 37.3910063332473 53.31558716203632 9.322299487419585 0 2 0
683 333 24 0 33.14113691922306 56.11134286118052 11.877806109195165 0 5 0
5330 0 24 0 37.14336038893492 54.96449721951526 14.178954671430635 0 0 0
1178 828 24 0 41.975704108199274 54.85068716179269 10.940640755527195 0 2 0
670 320 24 0 45.184910071183154 56.552690819334266 14.159542976941712 0 2 0
590 240 24 0 46.45427926747458 56.021555135516195 7.765530926970341 0 2 0
498 148 24 0 46.13152256905027 51.4936820577858 11.621542888393613 0 2 0
424 74 24 0 51.158914428967975 53.99285327775634 8.110743270153508 0 5 0
1425 1075 24 0 51.143040289725214 53.35206583065396 14.095444674469569 0 1 0
391 41 24 0 49.693577676773174 57.31012372254332 11.831684995034118 0 2 0
421 71 24 0 56.81046068623401 55.95427573993814 7.296981114461542 0 0 0
1412 1062 24 0 54.64629697058423 51.82039965257461 10.690399502031438 0 2 0
527 177 24 0 54.31903327535418 56.59717635040915 11.220050008124096 0 1 0
612 262 24 0 59.730680258872205 51.04654981269068 8.033757698378759 0 0 0
416 66 24 0 59.08387278420241 54.74051271098838 11.31287920232921 0 0 0
4967 0 24 0 7.668966600744133 59.708535464641976 10.541865899657061 0 5 0
5484 0 24 0 11.267290791813485 62.11906124938582 7.586624133359258 0 0 1
4920 0 24 0 14.424126938748211 57.88685631357332 8.943201213314554 0 5 0
3911 0 24 0 13.095987992516529 61.82824276090683 12.754850375974192 0 8 0
5240 0 24 0 21.893444501550192 58.93853439561196 7.282145188428636 0 1 0
5286 0 24 0 18.642138116713372 61.788919594182964 9.578900211236355 0 0 0
5362 0 24 0 17.24711294089538 64.07903784533723 14.294730029063508 0 0 0
455 105 24 0 28.14113026334327 57.620962633356726 11.575317416489874 0 6 0
664 314 24 0 25.201986433626892 61.45463948698563 10.431756667230282 0 5 0
560 210 24 0 29.906543798036683 62.922382279605024 11.628099611898735 0 5 0
4999 0 24 0 34.159073940339105 62.841922881924965 8.584176926385195 0 4 0
689 339 24 0 31.746777738409342 58.107187424904566 7.659499269686042 0 5 0
1351 1001 24 0 35.78486203692744 61.03146795328857 14.040500493193722 0 6 0
1426 1076 24 0 38.0001640283227 58.49135064739662 10.186266410458087 0 3 0
728 378 24 0 42.95982073735966 59.807239090106215 9.890185729339251 0 4 0
604 254 24 0 49.68116493054798 59.999565248858694 7.246035646067656 0 3 0
510 160 24 0 47.40960943660757 62.37154801887212 10.893838030732214 0 2 0
459 109 24 0 52.88420865590643 61.872372467426764 11.360110002793206 0 0 0
480 130 24 0 58.76268850150883 60.17427085712519 8.962097736222086 0 0 0
653 303 24 0 56.82337919110885 60.46274011987164 14.01958240134659 0 0 0
5224 0 24 0 14.342654747178917 70.32518572662335 7.479599675977056 0 1 0
5629 0 24 0 9.237420481806636 64.98243832247518 11.070863878263403 0 0 0
5756 0 24 0 14.754687814950048 65.63144695380909 9.241374231242201 0 0 0
5460 0 24 0 10.679941723824038 70.57178294534825 11.53631806198338 0 0 0
5615 0 24 0 17.04154775613707 69.32460321891413 12.063033556882957 0 0 0
5206 0 24 0 21.566790061233828 65.6051374970079 11.30851350003088 0 1 0
3694 0 24 0 23.15639861827144 69.824659711308 9.516641497499327 0 8 0
3285 0 24 0 27.835508592509132 66.84128007481551 9.539663494304934 0 8 0
1347 997 24 0 25.996086195995826 65.02275029381072 13.885144700388892 0 6 0
3919 0 24 0 29.28331359418136 68.95195108862366 13.864306460922622 0 7 0
1450 1100 24 0 33.25307406325895 67.52490413306515 11.190992517241229 0 7 0
606 256 24 0 37.25035826385366 70.73883931493948 11.624776172603067 0 5 0
5173 0 24 0 38.18740571251927 65.64026868024511 11.909285572374632 0 1 0
1274 924 24 0 42.85757766363481 64.86331707007342 10.595239833467714 0 4 0
1343 993 24 0 43.823803793105085 69.68915023627116 12.267578361399732 0 3 0
1152 802 24 0 49.863359463688624 66.97709103995099 11.025553044031273 0 3 0
377 27 24 0 48.85412418149225 71.23345710431695 13.166953247168609 0 2 0
2895 2545 24 0 59.21546871399832 69.95556432638868 11.69803427252922 0 2 1
475 125 24 0 57.032397835945865 65.43005402543244 11.649829445186745 0 0 0
1386 1036 24 0 54.35461034982168 69.02101295220176 8.790098568294717 0 2 0
1324 974 24 0 54.297499195390145 71.1076153646951 12.864847277512519 0 3 0
5697 0 24 0 6.764460566952704 39.53838577290484 16.456868472574868 0 0 0
5937 0 24 0 12.207310147003794 39.26443079975092 18.267993479684463 0 0 0
5977 0 24 0 7.891417367687039 36.718569117697385 20.997005922180044 0 0 0
4139 0 24 0 15.933125274750532 38.88291571912497 15.165449603619601 0 9 0
3924 0 24 0 20.760092431892545 40.61847612470934 17.165799545175762 0 8 0
6072 0 24 0 17.360193405490126 40.02531630412277 20.78723954040319 0 0 0
5334 0 24 0 23.134844791809744 38.17053132039775 21.02286303997367 0 0 0
3330 0 24 0 25.80721833902183 41.749612254437224 18.551026611191904 0 9 0
3462 0 24 0 24.399018136912048 37.45530288396399 15.479332731144572 0 8 0
5204 0 24 0 29.956461985103775 37.046193390716475 18.606061281691275 0 1 0
634 284 24 0 36.429066016206185 41.238366195577 21.16465953155845 0 8 0
5062 0 24 0 32.061917134617524 41.97468966209762 17.69670714354096 0 4 0
5264 0 24 0 33.85700748921644 37.163534709634085 21.535351225088068 0 1 0
1095 745 24 0 39.148545658108 36.016943292464184 21.578673617113804 0 0 0
661 311 24 0 38.12911275891514 38.50222171605463 16.84567662886016 0 2 0
540 190 24 0 42.38290132430327 40.05688886138218 19.517096928045483 0 3 0
1315 965 24 0 47.02137644517497 38.57614715225011 18.59814107133503 0 2 0
453 103 24 0 50.507616216116844 42.54865993254415 20.776178431685103 0 1 0
425 75 24 0 47.93718004463934 41.88419596282021 14.643859026884643 0 1 0
406 56 24 0 52.36178736684821 39.393691390104856 16.594292137046537 0 0 0
78 1 10 1 55.02992066556262 36.0330582782212 19.789830135932373 0 0 0
603 253 24 0 57.93538676584582 38.727836309048136 16.22416070717222 0 0 0
1037 687 24 0 55.14536273792218 40.70465938219746 20.247604810850007 0 0 0
5528 0 24 0 8.56403212160667 44.36903796769766 17.2434746979969 0 0 0
5326 0 24 0 13.677920557884509 43.91660285463682 21.126894285026943 0 0 0
4553 0 24 0 12.945510402407429 47.955937149618734 16.811216522981724 0 8 0
5763 0 24 0 16.170525320083645 44.218799238346875 16.557494475769815 0 0 0
4992 0 24 0 18.771266915979165 49.569770147784375 17.311852549160474 0 4 0
5992 0 24 0 21.43827024426733 45.640261852603366 18.584131226371916 0 0 0
4753 0 24 0 25.279213034189933 47.618520300589395 15.205791679878157 0 8 0
4578 0 24 0 28.149466762598845 46.20642711118386 19.221423536330636 0 8 0
413 63 24 0 37.3453639077046 49.87523569633775 15.47497543170112 0 5 0
1258 908 24 0 36.94077426539214 44.74844636953228 17.537264190036925 0 3 0
5392 0 24 0 32.76695650397698 47.65463851944233 16.668721332281358 0 0 0
5332 0 24 0 36.78847207088901 48.58238886206318 21.128273921374635 0 0 0
657 307 24 0 41.13444668496046 47.52235458916921 16.057062778854316 0 2 0
529 179 24 0 41.83458545578002 45.05753960716462 21.221808975283928 0 1 0
468 118 24 0 46.76972526295206 49.287475172791744 16.748394404498164 0 2 0
399 49 24 0 45.920093529328554 44.638485631696696 18.913116123838442 0 2 0
1311 961 24 0 51.54707211211114 49.238683885628674 17.989304842613713 0 1 0
440 90 24 0 51.97184553955713 44.56643339255409 16.004803195019093 0 0 0
1006 656 24 0 55.91053374319126 49.7673262185705 15.475150739961302 0 0 0
987 637 24 0 56.195484270566276 50.30399193590912 20.346059443462657 0 0 0
901 551 24 0 56.72420214028935 45.507565437089674 18.609638785223304 0 0 0
5275 0 24 0 14.559029012523354 52.89003943807632 17.350092411971488 0 0 0
5280 0 24 0 10.10400868543341 51.454145679020364 19.15193388106506 0 0 0
5770 0 24 0 12.700757141795288 57.34022001778701 14.513842855442652 0 0 0
3829 0 24 0 10.572549578470348 56.89102918099715 19.564881769828446 0 8 0
4062 0 24 0 20.014941379338662 54.80330895543366 16.062625923140793 0 8 0
5539 0 24 0 18.317551773269983 53.04502111095762 21.179632068083368 0 0 0
4075 0 24 0 15.893650809541334 57.20486853438476 19.418909650858158 0 8 0
523 173 24 0 29.573213851302995 51.62387942400782 14.769620054346008 0 6 0
4557 0 24 0 24.271608732899626 52.12254246828225 16.16437817892641 0 8 0
5346 0 24 0 28.061748648536923 51.47575227232684 19.55523435760303 0 0 0
676 326 24 0 27.35648720337432 55.97560017118376 16.574903991158045 0 7 0
5566 0 24 0 23.734406559898524 54.462219550850804 21.2260160387202 0 0 0
471 121 24 0 30.67093705460069 56.56653250137737 20.464946741091374 0 5 0
5372 0 24 0 33.985050665423266 53.41342986728224 17.58195912915025 0 0 0
1387 1037 24 0 32.34623767252563 50.959634680238764 21.453003510333268 0 2 0
687 337 24 0 39.11282170138246 52.91702939078395 18.824556663651492 0 2 0
1455 1105 24 0 43.04393888936765 50.51479093624486 20.120639640619824 0 3 0
1188 838 24 0 42.71664186463952 52.44250526268167 15.751785171442448 0 4 0
1456 1106 24 0 43.098709096638814 57.26578586063214 18.98495497177898 0 5 0
563 213 24 0 47.40522472421422 53.57669881222541 18.68794963338594 0 1 0
477 127 24 0 52.865936896538024 53.94004508278014 18.837388352028423 0 0 0
882 532 24 0 56.65921822501671 55.432518579552415 15.269506566542915 0 0 0
494 144 24 0 59.10711380885075 56.08462790195539 19.439563407445263 0 0 0
5876 0 24 0 9.55766551844163 61.90092076027391 17.01147002325981 0 0 0
5790 0 24 0 14.418911259529336 61.837489754828326 17.656843485717282 0 0 0
5413 0 24 0 17.394125734644973 58.68712756870645 14.931751688239707 0 0 0
6076 0 24 0 19.369218861694776 61.427249991654165 18.850637158236125 0 0 0
1284 934 24 0 21.24281767090523 61.51891296257374 14.449443777065524 0 7 0
4911 0 24 0 23.485676210367576 58.14019922079798 17.542088908630564 0 9 0
5181 0 24 0 27.72628721085926 61.01972203640458 16.31342223224114 0 2 0
4973 0 24 0 24.235794621521652 62.8924074706691 18.967096333538997 0 4 0
4527 0 24 0 31.78477673232927 58.17666003387504 15.841825711858105 0 7 0
5174 0 24 0 31.289661692951526 62.26993917078399 19.66263631442542 0 2 0
1414 1064 24 0 37.16238205797688 58.00001244507068 18.395773024888047 0 5 0
1226 876 24 0 40.50020518553859 58.838488568910186 14.994976590041528 0 6 0
439 89 24 0 40.75432472744222 61.7472752396423 20.896538803763242 0 1 0
597 247 24 0 39.57410614326723 63.62434506525616 16.196744061202416 0 5 0
685 335 24 0 45.02494573592679 61.77717515509846 18.225202099856677 0 3 0
462 112 24 0 48.79674199281435 58.286590986771564 19.871817474309825 0 0 0
1462 1112 24 0 49.15739831221341 62.97394070926351 15.630991432786779 0 3 0
666 316 24 0 51.41496292560894 62.626593145668814 20.47433549071828 0 2 0
422 72 24 0 52.384992317986566 59.527401430960474 15.735445196735759 0 2 0
505 155 24 0 59.586610201746986 63.67836208603579 16.78762868135685 0 0 0
583 233 24 0 53.98906342999266 63.977626271618966 15.519162740776528 0 1 0
607 257 24 0 56.12428318761826 60.57473823632232 19.049446435286498 0 1 0
5612 0 24 0 7.430805187218076 66.27474341332604 18.677176817838166 0 0 0
6194 0 24 0 5.881487673597879 71.84059098732797 17.001965071197592 0 0 0
5882 0 24 0 10.226299012565542 70.65905555674365 20.33959184913018 0 0 0
5783 0 24 0 12.024677480522746 65.82563073416459 15.232496936136203 0 0 0
5919 0 24 0 11.931671203445948 65.63684748214396 20.85849698847685 0 0 1
6191 0 24 0 16.278896558410803 68.54944112609228 17.427524740256302 0 0 0
4996 0 24 0 20.987055237736406 66.93447460366293 15.945971457798652 0 4 0
5823 0 24 0 17.537356940128028 65.20524697966923 20.675226760173324 0 0 0
6083 0 24 0 25.119734279962934 71.38112671039818 14.562315009924037 0 0 0
5057 0 24 0 28.43211549996518 65.84881004819238 18.29613787545259 0 3 0
1374 1024 24 0 24.656328270651688 68.61098380332788 18.780927278994234 0 7 0
531 181 24 0 30.219138005887803 70.5886311017012 18.642063523532215 0 2 0
387 37 24 0 32.835740119937405 64.86585789431176 15.538391135166373 0 6 0
5004 0 24 0 34.6859950106906 69.27971468929132 16.090312622725843 0 4 0
375 25 24 0 32.26897305953329 67.41286251074995 21.39761777388444 0 3 0
1369 1019 24 0 37.12722144126109 65.70779767719185 19.632651638237586 0 6 0
479 129 24 0 39.63543616571376 68.78522605224137 15.93987625177097 0 2 0
615 265 24 0 42.771304017738395 66.44961296473677 19.260746417432806 0 3 0
419 69 24 0 44.866668952172326 65.51919238626922 14.745911699390268 0 2 0
467 117 24 0 39.62403421960761 70.41380545310841 21.38706829024793 0 2 0
1129 779 24 0 45.16807489530581 71.45534126000786 18.934934939096976 0 5 0
673 323 24 0 51.437774932971735 68.3031079307877 16.5245448272245 0 2 0
1223 873 24 0 47.86404033905108 66.1822645405957 19.181233211968983 0 3 0
1438 1088 24 0 54.640318223052205 66.49398581970081 19.544023782853625 0 1 0
493 143 24 0 57.13897759072868 68.49624378131395 16.012775488977617 0 0 0
6177 0 24 0 8.698185883730863 41.2047150668116 21.922307297848402 0 0 0
6180 0 24 0 13.214350849824767 39.39525630719493 23.78079358844285 0 0 0
6135 0 24 0 9.277591735160575 39.97580652481995 27.256714933236665 0 0 0
5829 0 24 0 14.12992467606083 39.318014886716924 28.795814478418784 0 0 0
5956 0 24 0 18.97470724701729 38.927594565239716 25.594924422884613 0 0 0
5381 0 24 0 22.31391188578435 42.158841815723136 27.791113439574627 0 0 0
3910 0 24 0 20.51855751440329 43.03001574325583 23.193882154255594 0 9 0
4503 0 24 0 29.913306680558183 40.68218910879473 22.633261113089027 0 9 0
4990 0 24 0 26.719949484424376 40.20937085396771 27.21693296041073 0 5 0
1116 766 24 0 30.552938693352157 36.859086489323985 26.821804566548934 0 8 0
5065 0 24 0 34.324455923875426 40.54369327699632 25.68320182180033 0 4 0
1294 944 24 0 36.43027659441371 36.15197750434771 25.939848797431733 0 5 0
1371 1021 24 0 40.55109579190487 40.27456021183421 24.082960126550788 0 2 0
714 364 24 0 44.77912011223848 37.164389791858646 22.53905699376736 0 0 0
3577 0 24 0 38.75406053385142 39.704072029665426 28.67739030672624 0 8 0
580 230 24 0 45.28676351698633 39.18663574191767 27.291807314940993 0 5 0
458 108 24 0 45.89612505504542 42.346725924173036 23.805704455869684 0 1 0
1060 710 24 0 49.70759521235676 37.736830262822075 23.148678743209683 0 0 0
770 420 24 0 49.78792054437445 41.51441931632254 26.510732439113106 0 0 0
966 616 24 0 51.43994457841604 37.02621693764295 28.47042900723978 0 0 0
807 457 24 0 54.25415487511032 40.259752848852884 24.946735370519185 0 0 0
486 136 24 0 58.75236271985055 38.74317305976639 22.816189376814425 0 0 0
792 442 24 0 58.451252385911886 39.51716968707965 28.21175767433123 0 0 0
77 1 8 0 54.65040873906571 36.39072299017084 23.97693998170533 0 0 0
5661 0 24 0 4.76466656202069 49.21311493613122 22.86977664472834 0 0 0
5768 0 24 0 7.377695534485365 46.23779967765619 26.450700692798755 0 0 0
5329 0 24 0 13.78644587953511 48.9970789452601 22.187240700940706 0 0 0
6121 0 24 0 9.328039920445068 46.47668002893518 22.277087713567717 0 0 0
5618 0 24 0 11.422583618293759 44.19747586648236 25.61441082205983 0 0 0
5920 0 24 0 13.243131462413418 48.08241090747821 27.508048721031937 0 0 0
5225 0 24 0 18.39359344949547 47.157206920551474 21.753889984676675 0 1 0
5721 0 24 0 16.3595582305857 43.27020599853983 25.737807166666038 0 0 0
4556 0 24 0 20.032994909647797 46.82252895323097 26.473117509002126 0 8 0
5338 0 24 0 24.469390226043764 48.03960550934193 21.70138974342078 0 0 0
4533 0 24 0 25.52036930409286 43.58893167166115 23.60715260958209 0 9 0
5171 0 24 0 25.01026033188448 47.378119425284545 27.23129200204823 0 2 0
4197 0 24 0 29.26007533062402 48.185391773801086 24.09274538583181 0 8 0
4085 0 24 0 31.210112577634586 44.364705447138235 27.789633399004515 0 9 0
5112 0 24 0 32.770785846971144 44.630607881326405 22.236662590637426 0 3 0
3468 0 24 0 33.943321366759335 48.67693706918942 25.816616529799166 0 8 0
912 562 24 0 42.023090960191105 43.33060109204585 27.554121251936827 0 0 0
706 356 24 0 37.77624574945226 44.55226451624554 24.46118864979224 0 1 0
1404 1054 24 0 42.06341810151413 48.37410988440903 24.908177241674405 0 2 0
318 15 5 0 46.46980409307836 43.22368624647623 28.35169537777976 0 0 0
1437 1087 24 0 47.980185937297044 46.37391698736934 26.2478257438324 0 2 0
647 297 24 0 47.654340388459104 48.675117479097544 21.883089016278607 0 1 0
558 208 24 0 52.08386010641455 50.39179986015776 25.172405329799236 0 1 0
1447 1097 24 0 53.133073743616194 45.9370705258851 27.868274337015038 0 1 0
649 299 24 0 53.828273873449696 46.46895160258257 22.460426617715978 0 0 0
409 59 24 0 57.87454205169481 43.87771905184891 24.325957466163068 0 0 0
415 65 24 0 57.95280647346839 48.89817169418208 24.858266472984692 0 0 0
5296 0 24 0 6.663773391198929 53.98857906360433 22.9466378680262 0 0 0
5116 0 24 0 10.284377000113002 51.25835579559287 25.364185012297774 0 3 0
5922 0 24 0 13.756955519801508 54.20405003801275 23.770951522514242 0 0 0
5657 0 24 0 9.257738008059212 57.48084090750091 26.119006884781694 0 0 0
5940 0 24 0 22.407880883488517 51.44635984426459 24.993350050242565 0 0 0
3697 0 24 0 17.387248104925373 51.27887363152442 25.564194661028143 0 9 0
5574 0 24 0 18.031483871018168 56.481962971279735 24.499786436895892 0 0 0
3554 0 24 0 20.245703743329255 54.768942109973445 28.426216084053276 0 9 0
4715 0 24 0 29.08790337331704 53.27557596039457 24.461722570298885 0 9 0
5762 0 24 0 24.49992522150458 56.82227631041863 26.260938714336543 0 0 0
636 286 24 0 34.81961248803852 55.67779593853111 22.648059270505936 0 1 0
3832 0 24 0 32.86406893579886 53.15504793278703 27.111977001690494 0 8 0
1107 757 24 0 43.982902056896634 53.586103862097154 24.130778920872928 0 5 0
862 512 24 0 39.06018463900318 52.57100255143006 24.710368338311824 0 0 0
704 354 24 0 41.74449834487867 56.49848595480185 27.99723500356598 0 1 0
4433 0 24 0 39.40671514863152 57.3980860783946 23.880790582427387 0 7 0
721 371 24 0 47.13079992778845 50.802134332586256 26.714934123439285 0 1 0
407 57 24 0 49.36960081613537 54.54180957342938 23.63263902753252 0 1 0
933 583 24 0 52.20696671470044 54.978894079842505 27.750695407276233 0 0 0
599 249 24 0 47.33341959006858 55.89407050021101 28.646066413998263 0 1 0
1086 736 24 0 55.59594065283143 53.874274219410125 23.542718053642105 0 0 0
497 147 24 0 58.73722367563847 53.88901727418312 27.22795833367772 0 0 0
5444 0 24 0 7.721622940537479 61.482889572901286 22.06604295226667 0 0 0
5862 0 24 0 10.320271073749982 62.50559423894399 26.268846499710662 0 0 0
5447 0 24 0 12.912244238382556 60.81805872463359 22.468916320479497 0 0 0
5614 0 24 0 14.232687374807409 59.21312989957868 26.835361054552177 0 0 0
5658 0 24 0 17.619697785242348 61.50086107374908 23.78931756688214 0 0 0
5534 0 24 0 21.787802870267264 59.54824856172225 22.43938326806619 0 0 0
5565 0 24 0 21.19890685591056 59.788533855797894 28.147906113487377 0 0 0
6148 0 24 0 17.07306276218119 63.10096831297748 28.35444326725046 0 0 0
4265 0 24 0 27.228014759364466 59.354147253775665 22.493478674187283 0 8 0
4955 0 24 0 24.648449335800713 62.598282771078544 25.602995930195238 0 4 0
414 64 24 0 29.72168466693155 58.87330467864613 27.00110035349853 0 6 0
5051 0 24 0 29.43037858531396 64.28003773330687 28.39725719232273 0 4 0
5006 0 24 0 35.96434913345999 61.41673656907734 22.485432098392256 0 4 0
696 346 24 0 39.633439699144525 61.655021140939226 26.527116448674196 0 2 0
1135 785 24 0 44.13034972844361 59.06599487546362 23.824503713260032 0 2 0
545 195 24 0 45.32775603533145 60.77325448831194 28.307719416036385 0 2 0
2081 1731 24 0 47.807539732372966 64.15984690747644 25.19520864765349 0 2 0
2091 1741 24 0 49.9167392133539 59.35449728461934 26.053569654622837 0 1 0
448 98 24 0 53.34970376143352 58.00596693825548 22.173405035460853 0 1 0
1200 850 24 0 58.108027388889475 58.370694871841394 23.50764027745386 0 1 0
517 167 24 0 55.81280185025703 57.830905795783266 27.90560648625442 0 1 0
568 218 24 0 54.26821426736946 62.13157157020843 24.893140810199473 0 2 0
611 261 24 0 59.11585242541545 62.99718242769319 27.21679934977201 0 2 0
591 241 24 0 58.986851736216565 63.63821071934982 21.81163833625895 0 0 0
6073 0 24 0 4.110810034092707 70.66625146432844 25.600275697036764 0 -1 0
5418 0 24 0 14.536557491673193 70.16795981579723 22.24786295012233 0 -1 0
6187 0 24 0 14.01311938180305 65.86873180984142 25.274513282978454 0 0 0
5742 0 24 0 8.535984269307345 67.42354246272485 24.514471132158484 0 0 0
4494 0 24 0 11.028266555820093 71.07187009750403 26.264124827342364 0 8 0
638 288 24 0 19.156861114274427 69.59145092751187 21.67194716629175 0 6 0
5081 0 24 0 22.18636222473114 65.3121506516792 22.45387141341839 0 3 0
5784 0 24 0 18.844836134737065 66.80154132905615 25.604915052834677 0 0 0
644 294 24 0 22.247819960190267 70.86808710727671 25.2853656344564 0 5 0
662 312 24 0 27.444005564979314 65.75697462468344 23.103551619441422 0 6 0
1232 882 24 0 27.33478429574722 70.41976709189669 22.400251836013375 0 3 0
5228 0 24 0 25.969580984423118 67.89889735531955 28.313221053467476 0 0 0
5208 0 24 0 34.19683458650464 64.87696404443246 25.600396068110427 0 1 0
667 317 24 0 36.046438820153334 69.71313057475771 24.597585431576913 0 6 0
3795 0 24 0 31.517498243532934 68.97982469421743 27.215484401576973 0 8 0
725 375 24 0 39.82952153404903 65.92729811755137 24.152643994277703 0 1 0
581 231 24 0 40.764964069195024 69.75105009524263 27.200750501064363 0 2 0
3711 0 24 0 43.28242291884744 65.14966539368312 27.530595262116282 0 7 0
1209 859 24 0 45.186664424509566 68.37813710447833 23.24091619626821 0 2 0
1153 803 24 0 49.33428936131377 71.18069881300092 22.261954885913863 0 2 0
2883 2533 24 0 51.6054785105234 66.88636021989703 23.72907145326936 0 2 0
1279 929 24 0 48.39999257452457 68.99053135116739 27.447970009736167 0 2 0
758 408 24 0 56.59308486238203 66.64559632311496 25.007996124851072 0 0 0
1290 940 24 0 54.88279310571091 70.46917042865715 22.50252827365535 0 1 0
6078 0 24 0 6.067248302780562 39.34187238798922 33.55354863232303 0 0 0
5200 0 24 0 12.644908683402575 36.815915903490136 35.81934516269956 0 1 0
5305 0 24 0 10.231344003946692 37.20267317154728 31.085614516180815 0 0 0
6027 0 24 0 15.252195887968417 40.389269728306935 33.16287418589244 0 0 0
5647 0 24 0 20.088711663467283 41.24180630128788 32.02808752090126 0 0 0
5596 0 24 0 17.79533305642217 36.327824462868875 30.474153712284114 0 0 0
4709 0 24 0 26.557235596874342 42.26815779692181 35.755521921271196 0 9 0
5237 0 24 0 23.324070764352314 37.91017109230509 30.414441391306962 0 1 0
4576 0 24 0 23.496505840502348 37.28886981321416 35.45434629359016 0 9 0
4268 0 24 0 28.21163933626517 39.18382212424191 31.78522449203353 0 8 0
5219 0 24 0 30.070057730750573 36.72770517053926 35.50408971426369 0 1 0
3677 0 24 0 32.63589761759084 40.840231960455185 34.67560452833676 0 9 0
2779 2429 24 0 33.67171284416846 38.06903659119231 30.708210371676206 0 5 0
5277 0 24 0 35.21058725151489 42.95745257896929 30.702908372749523 0 0 0
321 1 3 0 42.36153742709939 38.440424102501446 32.19869143710379 0 0 0
355 19 17 0 41.65996346865444 37.698177984614766 32.34460202427861 0 0 0
2021 1671 24 0 38.01260700885035 39.616140843241446 34.38964732945851 0 1 0
354 19 17 0 43.21449991637356 38.53598422499205 30.0435634291975 0 0 0
322 1 18 0 44.42559950269778 38.29576676818579 34.76269437396478 0 0 0
353 1 18 0 44.33413595472422 39.60109403426257 33.099874158182246 0 0 0
319 1 3 0 44.944304605036365 40.078989588606184 32.3453575630417 0 0 0
314 1 18 0 46.90306920879294 42.92545527396633 29.9460320068027 0 0 0
351 18 22 0 49.560006322523094 37.48813267599096 35.18089209181353 0 0 0
66 3 17 0 48.20508514145192 39.185369393291346 29.680507001220324 0 0 0
68 3 17 36 50.006117700635166 40.741067350269844 30.187839840752687 0 0 0
67 3 17 36 48.14912317090873 38.57175297536014 29.51191805195131 0 0 0
352 1 3 0 47.541237645064214 39.433896213066674 33.58990223272829 0 0 0
320 1 12 -1 48.356728136547986 38.904305430225946 33.72980416988669 0 0 0
356 19 3 0 50.35005040861434 41.2664779902526 34.404058867224116 0 0 0
65 3 16 36 51.79203235363543 37.79054335755369 32.386124053294544 0 0 0
317 15 3 0 46.10148704004105 42.82529271394893 30.948839192210297 0 0 0
7 1 3 0 59.226296808419384 40.559946388924985 34.30675591690848 0 0 0
253 10 17 0 58.32100337904138 36.07428048373475 34.81930817446424 0 0 0
359 1 4 0 53.252813127099174 41.6741732718709 35.47409647551276 0 0 0
570 220 24 0 55.36299790354398 36.94347948974382 32.35022837040824 0 0 0
793 443 24 0 53.73663191510325 41.36824015692274 29.89576321096705 0 0 0
246 1 8 0 58.665467810719946 41.01161559791003 34.279145532393734 0 0 0
9 1 3 0 59.401797652346865 37.686489686908864 35.536393313340795 0 0 0
5319 0 24 0 5.199844450428224 50.18187187733865 34.903199373440216 0 0 0
4759 0 24 0 14.14990379454831 44.97751245049737 35.79603820085525 0 8 0
5855 0 24 0 7.932862678253878 44.000649140878615 32.151073271047295 0 0 0
6081 0 24 0 12.460757585650121 43.77770350147501 30.889798835079645 0 0 0
5575 0 24 0 14.000911449720832 48.75063722562394 32.26428885319851 0 0 0
5724 0 24 0 9.291538641024694 48.97216200319817 30.592809234594736 0 0 0
5974 0 24 0 10.291923903086554 47.559923498496076 35.75004203030962 0 0 0
5602 0 24 0 19.020574754230807 47.244830323183976 34.310423317953294 0 0 0
4442 0 24 0 17.44441235574922 45.20417915730849 30.35509120854384 0 9 0
4905 0 24 0 18.442157769794207 50.37289553743832 30.419864190608276 0 8 0
5322 0 24 0 22.5655408624139 45.881258785141895 31.639008563587588 0 0 0
4881 0 24 0 29.3145212196019 49.757001840731206 29.02740835173361 0 8 0
4498 0 24 0 27.150332147570413 44.242866531501015 30.891234976355097 0 9 0
4061 0 24 0 26.716449999377993 48.871609917319205 33.61373157151759 0 9 0
5111 0 24 0 35.972183797181344 45.12045669179433 34.89577038587364 0 3 0
379 29 24 0 30.84346154189241 45.76751650670872 33.43830586668319 0 7 0
5288 0 24 0 33.66606727969506 48.79737260844701 30.760441688559382 0 0 0
3722 0 24 0 38.40091149347245 46.856303682536776 28.906887277934068 0 8 0
551 201 24 0 44.06702786460787 47.53584977272846 29.592137617637924 0 1 0
378 28 24 0 38.65643742518532 49.5452429817358 33.881822562631555 0 1 0
2597 2247 24 0 40.8922510682109 44.08989957743067 32.279263498224 0 6 0
934 584 24 0 43.858998296720934 49.21812736619488 33.98211312222083 0 0 0
249 1 4 0 52.49350925682706 43.39543379166672 35.57749456760947 0 0 0
870 520 24 0 46.08002546649362 44.638512485635076 35.781386386142294 0 0 0
309 1 3 0 48.97754676552194 49.101171403333716 34.858968675099185 0 0 0
312 1 8 0 49.81326172292196 47.75752007023295 33.96215271737619 0 0 0
316 15 17 0 49.630421481240695 44.98001985559996 29.78536690800448 0 0 0
315 15 17 0 48.737387893956814 44.30815182439398 32.427518379798286 0 0 0
358 1 3 0 51.60818364800467 44.18177221855728 33.86304119049967 0 0 0
311 1 6 0 47.46797716718939 47.36964705428772 32.28398842733819 0 0 0
313 1 3 0 49.18174784470836 44.89507114812388 30.733163888847987 0 0 0
1031 681 24 0 51.36493705941546 49.3637887276117 30.476385464478533 0 0 0
307 14 3 0 52.48614366370794 49.78572145265723 35.393264722571544 0 0 0
310 1 5 0 51.80758223409392 50.35036369221639 35.323293721667525 0 0 0
365 1 8 0 59.919609417658656 50.28221983402942 35.19253239024029 0 0 0
357 19 12 -1 52.59544498764722 44.39295729093105 35.01570598699516 0 0 0
247 1 19 1 59.64847657403014 44.42083906087401 34.76016990795667 0 0 0
245 1 3 0 58.96760068331383 44.3827068595325 34.54236698073589 0 0 0
839 489 24 0 58.63558359517508 44.65112794730161 29.677012365149032 0 0 0
248 1 3 0 55.82394598626486 43.30668216682572 34.81713037618279 0 0 0
360 1 3 0 54.33151479299915 46.449303607535064 33.17682821489885 0 0 0
362 1 3 0 54.69225698038824 49.759608187599106 34.280561739501984 0 0 0
361 1 4 0 53.93810089621399 49.72597905329596 35.19238247997061 0 0 0
916 566 24 0 56.16110295978571 49.933557603578016 29.3586451805063 0 0 0
5702 0 24 0 7.352477227355706 54.39325823273435 29.36191573452284 0 0 0
6117 0 24 0 14.50188821964241 53.407860387876426 29.60008032838372 0 0 0
5608 0 24 0 9.667105944783868 52.79729674636232 33.86169165634863 0 0 0
5889 0 24 0 17.747727517855676 53.59761795029848 34.56817565040067 0 0 0
4740 0 24 0 22.21380659443705 51.302155130576985 34.278306707092135 0 9 0
4785 0 24 0 22.21808340097859 56.71425371775614 32.625397492089355 0 8 0
5777 0 24 0 16.980470144340266 57.587287200025365 31.333241595067562 0 0 0
2683 2333 24 0 24.38935758889693 51.62612757873824 29.524911091078113 0 7 0
4696 0 24 0 28.064339113785014 54.78938505530663 29.559898810098193 0 8 0
5257 0 24 0 26.080206269714946 54.62712688263908 34.88574827548661 0 0 0
4429 0 24 0 32.69979257778808 56.515675763374844 30.845294294188303 0 8 0
5234 0 24 0 30.238123500669268 52.233523504155436 33.303604322907404 0 1 0
4951 0 24 0 36.390417709752434 54.04938405370404 34.93953954887169 0 5 0
1062 712 24 0 37.13621529890851 51.4331343853364 29.381315186073753 0 0 0
5189 0 24 0 37.27768219918589 56.29148768073587 29.09151171952991 0 1 0
518 168 24 0 42.580751803828974 53.89170811700407 35.191779129196014 0 3 0
629 279 24 0 42.20232164707488 51.71859569235834 29.49715689326851 0 5 0
1458 1108 24 0 47.0991400783294 52.01796754016591 32.01959752929875 0 2 0
982 632 24 0 51.2684978868549 54.10130047689517 33.415304342142065 0 0 0
364 1 3 0 57.17876336453911 51.583390149483115 35.3909665427334 0 0 0
1000 650 24 0 56.01088453470641 55.222644117394715 32.295375303634955 0 0 0
5924 0 24 0 6.750808742653593 60.43231622507245 29.833718855878168 0 0 0
6032 0 24 0 9.221957931723349 62.517636454839625 33.806217717542076 0 0 0
6017 0 24 0 10.670912513241142 57.860677946257304 31.705811760561392 0 0 0
5978 0 24 0 14.403696159667636 62.35759936325947 34.011674934031355 0 0 0
4832 0 24 0 12.044131495246976 64.76275276602652 30.420292866794323 0 9 0
5556 0 24 0 20.35692787861686 61.536975734837306 33.082387204301625 0 0 0
3797 0 24 0 22.095463277833357 64.7994722045736 29.58928267608109 0 8 0
5439 0 24 0 25.816378918031475 60.540887508007884 31.359846362100672 0 0 0
1289 939 24 0 34.82028436905752 60.673482493367246 28.9704336175172 0 6 0
2610 2260 24 0 33.74104404523186 62.358224808435885 35.836984685191915 0 7 0
5138 0 24 0 30.671083242957515 60.64125114921946 31.95880470168021 0 3 0
1262 912 24 0 36.33227639789353 58.84883030772452 33.43980092011326 0 7 0
1376 1026 24 0 41.86809302452663 58.3272793134031 32.60240386074737 0 6 0
383 33 24 0 40.333139051836994 63.5100436324569 32.038546924370266 0 1 0
744 394 24 0 46.999158666778804 58.22708315133502 34.08706197495376 0 0 0
1130 780 24 0 51.0907288705316 63.90356474801346 28.81395262286088 0 2 0
1915 1565 24 0 45.12469573054995 62.591632826405636 32.68394944088035 0 1 0
2559 2209 24 0 51.10226794115415 63.32451963858585 33.76505560264439 0 3 0
466 116 24 0 51.11753166796242 58.5956712635271 31.273273628869802 0 0 0
811 461 24 0 55.44138149418767 64.27200192062013 31.963200923097116 0 0 0
582 232 24 0 57.77298933311472 59.544336251649014 32.5074069583569 0 0 0
369 1 10 1 54.86235934484994 61.01852421047813 35.730737962937454 0 0 0
5850 0 24 0 5.871391640067617 70.20873785115072 33.357686176414795 0 0 0
6228 0 24 0 7.4063524851604186 67.4209148721016 29.738288211166115 0 0 0
5594 0 24 0 11.218675395296847 70.86806693561597 31.454532401810745 0 0 0
5732 0 24 0 14.41294626935829 68.37883832702825 33.944710146322116 0 0 0
5376 0 24 0 15.192613137110218 69.09378161665087 28.910795028053922 0 0 0
5217 0 24 0 20.83940174105532 69.79471011954641 29.81784004013922 0 1 0
3450 0 24 0 18.269498327505094 66.0272643625278 32.38121724378549 0 7 0
1396 1046 24 0 18.593099391349345 70.54550130640646 34.75961266375795 0 7 0
2786 2436 24 0 22.11722864480638 65.33608659095452 35.53648754984114 0 7 0
2643 2293 24 0 27.553092005456627 65.84780241945009 32.86720072623694 0 6 0
2745 2395 24 0 23.83467383054328 69.5624338341634 33.23127000120666 0 7 0
1356 1006 24 0 28.576217262799485 70.96301030145464 31.583733419250226 0 4 0
585 235 24 0 33.96662701319493 65.16113457686762 31.61359538661296 0 5 0
2695 2345 24 0 31.17649060093386 66.88404231093868 35.77826907412436 0 5 0
2730 2380 24 0 33.48932963664996 71.08828330958792 32.24634544637954 0 4 0
589 239 24 0 36.328448982253754 67.20971373989245 35.087775141763004 0 6 0
449 99 24 0 43.19925856845612 68.52111370136475 31.399680710546118 0 3 0
3610 0 24 0 37.6125550935028 66.55409574323826 28.830757583315474 0 7 0
700 350 24 0 38.99521632683297 71.74772628358213 33.958343245385805 0 2 0
1900 1550 24 0 47.66165020843042 66.65374293778775 32.75728771683944 0 1 0
1921 1571 24 0 52.60413683667553 68.66212258423205 35.83887164057638 0 2 0
1593 1243 24 0 59.018481104728465 67.29366078296148 30.25066478499431 0 -1 0
491 141 24 0 57.45546470256286 71.92042082214185 29.01224397626282 0 0 0
3094 2744 24 0 56.641229963934336 70.50304899432243 33.508535329403266 0 -1 0
2090 1740 24 0 53.482599773105406 68.21851296821285 28.947851425720607 0 2 0
5318 0 24 0 3.43257844590611 42.225971286996746 39.77358332876397 0 0 0
5939 0 24 0 7.317498261687306 38.33639231170291 38.68813609013165 0 0 0
5590 0 24 0 11.54413867306564 39.02387861222521 41.356752181741236 0 0 0
5696 0 24 0 10.391465244555238 41.55366825506143 36.031266083690085 0 0 0
5252 0 24 0 15.866800434428049 40.1604229161537 38.89769998191661 0 0 0
5356 0 24 0 21.512676143252325 37.13849228679768 41.53295210203062 0 0 0
2608 2258 24 0 19.853438843957818 41.617036408804935 43.160983419463044 0 7 0
5569 0 24 0 20.362019828409604 40.475855819686565 37.213439721952135 0 0 0
5055 0 24 0 24.235574335823316 42.084886574198954 40.56684375396734 0 4 0
3475 0 24 0 26.182401690275082 36.92823794518517 39.907752899658846 0 8 0
2139 1789 24 0 31.121057570135367 39.14930366708376 39.95861281973674 0 7 0
4751 0 24 0 36.258041212317075 41.43769293600124 39.13716229106457 0 7 0
1190 840 24 0 35.2880938469803 37.6240880266486 42.94042239041929 0 5 0
2618 2268 24 0 32.77546079265989 42.18295900122266 43.02543819634784 0 6 0
701 351 24 0 35.17236980468893 36.29838509928923 37.83597748221084 0 6 0
1826 1476 24 0 41.694577346994215 41.61435486056373 37.109978114107335 0 1 0
2865 2515 24 0 44.24541750202091 39.874683075800114 41.16971099198842 0 6 0
5038 0 24 0 39.96235524405936 37.555662656707085 39.990973203103216 0 3 0
323 16 17 0 46.121287232579085 40.62724154529781 36.58205229025546 0 0 0
324 16 17 0 46.65240980716762 37.883446424653556 37.26107721117216 0 0 0
2197 1847 24 0 48.79888937706065 40.76412359618843 38.865573231971716 0 0 0
3180 2830 24 0 47.91642180245242 36.554769269560715 41.048966164062726 0 0 0
256 10 4 0 51.01021039130767 37.078999790212116 37.38599615478744 0 0 0
257 1 3 0 51.5468269510355 36.80920733843074 36.638011942607164 0 0 0
255 10 3 0 52.494579077416304 40.09760074728664 36.11213375587567 0 0 0
350 18 3 0 46.020852323731305 38.354976300981356 36.28188374944708 0 0 0
304 14 17 0 59.9263079007416 40.73224285575712 38.38438202483748 0 0 0
2555 2205 24 0 52.772434999225204 39.44659591366715 41.81078664482037 0 0 0
2511 2161 24 0 57.27615973471105 37.860239535951614 41.247591314640495 0 0 0
291 13 17 0 55.38083103233977 42.0686111069808 40.05910511454274 0 0 0
11 1 6 0 56.20155363429174 36.64306915213055 36.871185470937114 0 0 0
12 1 7 0 53.95625996085657 36.3789148491596 38.336579758849275 0 0 0
251 1 15 0 58.177003572127916 37.89735067638465 37.20014553819586 0 0 0
8 1 4 0 56.44254989399283 39.039030325463195 36.31310897715428 0 0 0
282 12 17 0 59.968680664832 41.294781954759706 41.82684737727968 0 0 0
250 1 3 0 55.69915817669892 40.41613054202084 36.46814130690887 0 0 0
5921 0 24 0 5.628888828515186 45.71078956642834 36.49061113458394 0 0 0
6173 0 24 0 3.2589131890934246 47.23169272846398 40.69358023304922 0 0 0
5820 0 24 0 12.7750021751179 43.754227810423295 41.093091584584194 0 0 0
5801 0 24 0 8.73242683016741 49.02343552096492 41.373483236522716 0 0 0
5730 0 24 0 7.842871648998715 44.02206862712815 40.9339807147644 0 0 0
6165 0 24 0 13.824517414132385 48.769808573439846 41.41750956556888 0 0 0
4830 0 24 0 17.893047245198208 45.17126159821194 39.547252417506996 0 8 0
4950 0 24 0 19.350365627318837 49.75964805651504 38.81835319169148 0 5 0
4082 0 24 0 22.546825901696195 45.94026415363385 42.81005511985983 0 8 0
4829 0 24 0 28.205176411343192 44.28723597681356 42.55403451687326 0 9 0
2847 2497 24 0 27.88312825120387 47.1363875210635 38.85600656305 0 7 0
3565 0 24 0 22.86305678292252 45.7041674362628 37.364853880250315 0 8 0
2005 1655 24 0 23.914535102108726 50.17406047573729 39.672855978378024 0 7 0
2100 1750 24 0 31.84709818407789 44.444054939201635 38.38070865078106 0 6 0
1127 777 24 0 36.229556788126835 47.50545326158043 39.507716152897935 0 4 0
1914 1564 24 0 31.78709345224945 48.406514467577665 41.7845369650259 0 6 0
2707 2357 24 0 33.43778556333603 49.96605046485964 36.376889033681586 0 7 0
2003 1653 24 0 41.18945977176754 46.40201388953415 37.14253043771336 0 1 0
574 224 24 0 44.43245560978633 44.83091329135074 40.543116247967504 0 1 0
1014 664 24 0 45.210523081703116 49.40897209176202 38.8102730955428 0 0 0
2357 2007 24 0 49.63292894504376 45.72548757063654 38.95953480156576 0 0 0
298 1 9 -1 50.24358861339915 47.33238515769928 43.18393620582981 0 0 0
295 1 14 0 50.42568331215897 47.06848352692543 43.04419349340184 0 0 0
296 1 8 0 49.08930333847952 49.56113694335835 41.45518636245292 0 0 0
363 1 12 -1 51.127994789259745 49.85929683693336 36.17676445377546 0 0 0
292 13 23 0 52.757872323992856 43.20522171931846 40.241116835711054 0 0 0
305 14 17 36 52.640436955926226 48.282922983852394 39.59512299530891 0 0 0
289 1 15 0 57.43703247828496 43.62872745766383 38.512935321398174 0 0 0
290 13 17 0 54.64091922909034 44.62950711397218 38.60624740026365 0 0 0
288 1 3 0 54.55828563113918 43.64534609788362 39.95402341651788 0 0 0
2254 1904 24 0 57.29213587988638 47.43811547768399 37.71924506707224 0 0 0
293 13 3 0 53.64718442228408 46.897729305575766 41.95177909277881 0 0 0
286 1 3 0 57.019338812045724 44.001541154144924 41.71050297148512 0 0 0
287 1 9 -1 55.333601004924056 47.11767232285976 42.54126108214159 0 0 0
285 12 8 0 57.03650921854441 43.933125829965334 42.9310613709405 0 0 0
306 14 17 36 54.88233271203279 50.06137583397421 38.941348774193564 0 0 0
301 1 3 0 52.59642910814833 50.13385845863257 38.38333133063325 0 0 0
5363 0 24 0 5.946687523575141 53.12827310457431 38.99409760575665 0 0 0
6116 0 24 0 13.37558074706232 56.42565881680378 36.32054480101497 0 0 0
5868 0 24 0 14.35905077875802 50.98329308444255 36.56035400730944 0 0 0
5947 0 24 0 10.904837656863863 52.872824214316175 39.084792953284186 0 0 0
6086 0 24 0 8.114733096787434 56.838992245164434 36.10610354973365 0 0 0
1873 1523 24 0 16.632167968501086 54.31024410096207 39.53378583238613 0 7 0
5670 0 24 0 22.302728619922455 54.975949329343386 37.73318218182279 0 0 0
5253 0 24 0 21.118679939661845 53.18205325943829 42.66989434801887 0 0 0
4991 0 24 0 26.881740204275133 57.51762797121557 39.94485437480222 0 4 0
4577 0 24 0 28.621999015865885 52.77130883090771 38.86057323799114 0 8 0
1353 1003 24 0 33.964143078996706 53.42579104087679 39.65827265852705 0 6 0
2646 2296 24 0 31.621345354750794 57.54177939631308 42.381032334355794 0 7 0
660 310 24 0 31.56125645859494 56.23020835089426 36.45090933563596 0 5 0
719 369 24 0 38.794352034637456 51.4879510918438 38.98814048348126 0 1 0
1986 1636 24 0 37.743569834329236 55.351491024949226 42.54615573569666 0 7 0
4077 0 24 0 42.90561976038036 53.83073897209395 40.17023418093433 0 7 0
1927 1577 24 0 39.52290710537579 56.96829692579801 37.54755557682395 0 4 0
302 1 15 36 49.430450879416625 50.72354103496137 39.71403638489533 0 0 0
451 101 24 0 47.28235732491987 53.50759445781175 36.7040177656783 0 1 0
299 1 3 0 51.63997653841185 52.38786394040924 39.81191788604533 0 0 0
303 14 16 36 51.83642704956252 52.904155776592965 38.97312938149555 0 0 0
297 1 3 0 51.44053610925558 50.62912279814608 42.59882350414241 0 0 0
2527 2177 24 0 51.503891949464524 57.43297090111991 37.81601017389761 0 0 0
2416 2066 24 0 47.125771683853834 53.114420835424625 42.61555297687508 0 0 0
1392 1042 24 0 50.695863961093096 56.34548442906497 42.34533728221978 0 2 0
1907 1557 24 0 46.50507694817678 57.143202269850114 39.415018266445244 0 1 0
2261 1911 24 0 58.26168539762906 51.30628481811316 40.440777411086614 0 0 0
767 417 24 0 55.18553237656598 55.564670095743026 41.15890572105098 0 0 0
294 13 12 -1 52.98199191704755 51.1193662504748 42.405761138576565 0 0 0
300 1 9 -1 53.33388956222421 51.585416442958675 42.55535059344144 0 0 0
367 1 1 0 56.92277432880498 54.166157693769414 36.932510834471465 0 0 0
308 14 12 -1 55.19626951760519 52.90621981701974 36.615632670123425 0 0 0
5758 0 24 0 6.1630937632801395 58.29079858760346 42.416069038702055 0 0 0
6234 0 24 0 11.720800677164126 57.90271997918105 42.188950643766944 0 0 0
3572 0 24 0 12.146991093937553 64.3428181611122 37.89495559000735 0 8 0
5938 0 24 0 12.260063996929098 63.16840653190771 42.84736258063097 0 0 0
3289 0 24 0 18.33394443043734 58.41491146388816 36.72383298693122 0 9 0
3586 0 24 0 21.945969237736925 58.41322000389444 41.98748705877464 0 8 0
5555 0 24 0 16.87534012918355 59.000293432614086 42.22015265130422 0 0 0
4547 0 24 0 17.658174581015633 63.113242757227525 37.64559690573835 0 8 0
4877 0 24 0 17.885632177618263 64.0301942382735 42.97837180049462 0 8 0
5385 0 24 0 23.063290759716672 60.77032715456198 37.3030969700997 0 0 0
4435 0 24 0 25.647674241807103 62.078408225540485 41.848194591146985 0 8 0
1861 1511 24 0 28.3016560426642 61.19650313512153 36.60545152144902 0 7 0
4306 0 24 0 35.28068287015541 59.18069300922858 39.53402764286 0 8 0
5495 0 24 0 30.540830448728915 63.032924678586205 40.573777283253925 0 0 0
4939 0 24 0 39.46783373560284 62.11167951279929 42.631917639412585 0 5 0
3996 0 24 0 42.64931971331931 58.55950638904501 41.492721123225024 0 7 0
2752 2402 24 0 44.75562907529781 63.28159769094489 40.79768332524926 0 2 0
669 319 24 0 38.88340470450549 62.49871666339176 36.751502794016965 0 6 0
663 313 24 0 43.61278616275996 60.14034805772815 36.79068091140143 0 2 0
2700 2350 24 0 48.416002302968074 61.33344803100583 37.92551907375576 0 2 0
2763 2413 24 0 52.3268861721712 64.20600843315502 38.61762727916554 0 2 0
2054 1704 24 0 47.344966514560156 60.048422207714445 43.16646486993131 0 1 0
2006 1656 24 0 52.37176723059509 61.576828987920095 42.92847148803988 0 0 0
2380 2030 24 0 56.499867287793364 60.95817829512977 39.86217506959192 0 0 0
368 1 8 0 56.954208682796654 57.622604402287884 36.616893307225325 0 0 0
460 110 24 0 59.60381453309899 62.421385786881174 36.01843913742003 0 2 0
5527 0 24 0 3.1815880495423308 70.43155709539326 39.45514723601763 0 -1 0
5821 0 24 0 7.367584385052853 67.44111245611228 38.21406032336897 0 0 0
6174 0 24 0 12.096426210428472 70.3713994376333 38.127825198852975 0 0 0
5616 0 24 0 7.7258807211016185 69.76054128285776 42.65368057767272 0 0 0
3566 0 24 0 13.416081265809197 67.87504218953255 43.017437500460176 0 8 0
4395 0 24 0 16.508287059844 67.39099131531056 38.80875852107247 0 8 0
3816 0 24 0 22.051985826701774 66.04187647814683 40.74792311538268 0 8 0
4493 0 24 0 21.867780200834694 70.61582327503324 38.51675543210657 0 8 0
2718 2368 24 0 27.725410009979495 70.31184970389249 36.443194472189745 0 7 0
4921 0 24 0 27.021326238409696 66.14155600080724 38.51728833733886 0 4 0
2693 2343 24 0 25.922516148371493 70.3773316170316 42.426553298591976 0 5 0
1363 1013 24 0 35.216289656603564 65.06076412189182 40.08469712103301 0 7 0
371 21 24 0 30.93663457158423 68.59448537000097 40.32759848782846 0 6 0
5526 0 24 0 35.56699659446966 69.85712491784827 41.77804627353261 0 0 0
1164 814 24 0 33.64626561157843 71.10172714884791 37.2103843283282 0 5 0
2151 1801 24 0 43.81731717755327 68.50128070317322 40.89562053705947 0 1 0
2584 2234 24 0 39.058216186302026 68.91843783474803 38.25697105679122 0 3 0
2002 1652 24 0 43.28564852446641 65.6541481036971 36.598269346993995 0 3 0
1271 921 24 0 45.00124277329228 70.31591938572153 36.301674975813334 0 2 0
1170 820 24 0 47.91029938386802 66.31066456752644 37.99135557034679 0 2 0
2885 2535 24 0 49.0489777733834 65.23685540878496 42.94273771575211 0 2 0
2027 1677 24 0 54.062027248472575 69.95166075320115 40.741049732420635 0 2 0
2808 2458 24 0 56.76149014173768 66.25666644497889 36.29044152685119 0 2 0
3244 2894 24 0 58.91156310111342 70.52641084989023 40.990475123409944 0 -1 0
1912 1562 24 0 56.117334917638786 65.72097354671591 42.314236691554164 0 2 0
5846 0 24 0 6.8269808975974335 40.347459505079726 44.624833780022385 0 0 0
5912 0 24 0 7.432616443474162 41.179613623328194 50.347658641192936 0 0 0
5807 0 24 0 11.487579000961048 41.796595183308106 45.12368839312983 0 0 0
6104 0 24 0 11.403445432733278 36.70764205783891 45.85176211728206 0 0 0
5835 0 24 0 15.895845645102588 37.596732216545455 44.35684235627415 0 0 0
6016 0 24 0 15.758959591050331 41.234535655325566 48.23950740583016 0 0 0
6025 0 24 0 20.958194595237632 41.149933302371764 48.052172345645445 0 0 0
5244 0 24 0 20.336002435785034 36.162636991035555 46.12605188272235 0 1 0
3267 0 24 0 25.170929648827975 40.897595312685404 45.29204450748565 0 9 0
3272 0 24 0 26.209902325737254 41.290377481704695 49.878693365625146 0 8 0
3552 0 24 0 24.29684914252991 36.97440590197979 48.867280436485615 0 8 0
3786 0 24 0 29.710641955830315 38.86605803245351 45.46854986270151 0 9 0
2093 1743 24 0 34.21571092202851 41.212584711498316 47.52215969007401 0 6 0
1879 1529 24 0 38.15479004568415 41.88807719253584 43.71978215579063 0 4 0
2517 2167 24 0 41.66677251157577 40.66998410989709 48.884218901597755 0 0 0
1897 1547 24 0 37.682439309453294 38.21501174328718 49.813402775132566 0 6 0
2322 1972 24 0 45.05638665492076 37.71566269374221 46.54066130418965 0 0 0
22 1 9 -1 49.63061414866151 39.070570820238146 45.45409828448477 0 0 0
19 1 6 0 50.10255926524371 37.08599905773167 45.72499426885583 0 0 0
21 1 3 0 52.42813795810088 38.915917173133465 47.10841784418304 0 0 0
1904 1554 24 0 47.64740389267952 40.968462142518845 49.74429907504227 0 1 0
765 415 24 0 48.22435527400526 43.1673294587217 43.267010773359594 0 0 0
284 12 14 0 59.59265852453628 42.044344209834975 43.21836806870596 0 0 0
281 11 18 0 57.451392365053486 41.936091976747655 44.01098593829632 0 0 0
24 1 8 0 58.197270888686674 36.29417211312071 45.92351964798122 0 0 0
25 1 10 1 55.058724690761196 38.90995202605575 46.22071750774833 0 0 0
23 1 3 0 55.108482278242604 37.91210285795991 45.550327964038104 0 0 0
280 11 3 0 59.03898442237479 39.57879722016118 45.39025596791212 0 0 0
283 12 17 0 59.875811855485296 39.52680009583939 44.14044782497897 0 0 0
2276 1926 24 0 56.41973296032951 41.90517753982335 49.15344821999308 0 0 0
276 1 3 0 59.62472826136744 36.33606984434042 46.476151382887 0 0 0
6230 0 24 0 10.55508421148633 46.59940590096571 45.187939812783156 0 0 0
6109 0 24 0 14.28223923868729 48.3838848351556 48.09808545117183 0 0 0
6170 0 24 0 9.150400659793698 49.997434999219635 49.22193367428243 0 0 0
5355 0 24 0 12.154503595311411 44.15515890420148 49.9511082233342 0 0 0
5706 0 24 0 15.923533892619353 44.68989488500645 44.62794873487119 0 0 0
2143 1793 24 0 19.35520277759101 46.27664475357395 47.30741421712948 0 7 0
5294 0 24 0 17.882899716977956 49.54301190165283 43.70297848412745 0 0 0
5278 0 24 0 24.87051176940826 45.39025737196448 47.24716517935846 0 0 0
1833 1483 24 0 27.694074624359367 48.835647350858515 44.93411595849985 0 7 0
3578 0 24 0 28.54323117145899 48.54381172459736 50.31949907493427 0 8 0
5411 0 24 0 22.97767095331015 50.09318830635613 46.50975939430917 0 0 0
2121 1771 24 0 30.475102313276683 44.66139820615084 46.86885135487855 0 6 0
5276 0 24 0 35.56382961956222 45.58354547315872 44.80487366374685 0 0 0
2607 2257 24 0 32.65640351707105 49.48132809401617 46.91765421683495 0 7 0
2639 2289 24 0 34.56953973427888 46.00972991507088 49.716524160618434 0 7 0
5115 0 24 0 40.55409358230264 47.44070686207713 43.207128952654365 0 3 0
2816 2466 24 0 44.49715130797502 43.878550826795845 46.300766480850506 0 1 0
2565 2215 24 0 39.700314414589045 45.79806782147559 48.07172784054165 0 5 0
4997 0 24 0 43.487619080490965 49.68112404405499 48.58275793178086 0 4 0
2145 1795 24 0 37.937184253772394 50.34447277413834 48.984079275530114 0 6 0
2105 1755 24 0 45.62466127922253 48.424123539633726 43.79146811429948 0 1 0
2671 2321 24 0 48.192633726899984 46.05645382274967 47.3655096385264 0 1 0
2219 1869 24 0 52.63246922260261 43.559905292095415 45.88293917769419 0 0 0
2120 1770 24 0 56.64096644611725 46.35495048385009 47.09459797061328 0 1 0
2516 2166 24 0 52.778469180919586 48.642266696143956 47.075032040115026 0 0 0
5980 0 24 0 11.049927017704977 52.3475655705397 45.12443142675587 0 0 0
6101 0 24 0 10.803102672890445 56.73220287002677 47.29227897909722 0 0 0
6031 0 24 0 13.322205871339156 52.82205156150878 49.133210288358526 0 0 0
5404 0 24 0 18.385515095467312 51.34279767173757 48.77221759781256 0 0 0
5787 0 24 0 16.111859956771045 54.768473935505064 45.377401730048256 0 0 0
5674 0 24 0 18.009543011908804 56.859319044068386 49.55680399408286 0 0 0
4216 0 24 0 21.834600240226564 55.17301591582497 46.7964618071557 0 9 0
2612 2262 24 0 27.131402472275187 52.722590545424495 48.58367697911064 0 8 0
4825 0 24 0 26.12429505089532 54.12090352379217 43.249436435351825 0 8 0
2859 2509 24 0 36.439744369361634 50.521026491926044 43.25100504131983 0 7 0
652 302 24 0 30.742569128609002 52.97887969511478 43.88990214345588 0 6 0
3810 0 24 0 35.75104459741625 54.676968859216835 47.18451349452001 0 8 0
1409 1059 24 0 41.64689032120967 52.64937911017936 45.21258982334071 0 2 0
2891 2541 24 0 40.012089936639924 55.01884228822674 49.943296184069254 0 2 0
2138 1788 24 0 45.42369897877825 55.19498233433993 47.39073320145827 0 2 0
2255 1905 24 0 48.59837462193982 50.97610830158414 46.772683282567385 0 0 0
2698 2348 24 0 53.1145137698886 53.67638085721903 47.206145117860565 0 2 0
2167 1817 24 0 57.21433582608966 51.04985196490559 45.25491080561304 0 0 0
2060 1710 24 0 58.32023738172374 54.614831880789744 49.74364474902318 0 0 0
1989 1639 24 0 59.090376159605135 55.41705304561709 44.457994386106364 0 0 0
5873 0 24 0 8.627085674115834 61.31448445573049 46.65756664515957 0 0 0
5895 0 24 0 14.65208812652306 59.85179625465608 46.44424321083096 0 0 0
3823 0 24 0 19.91477995205645 59.887621104649575 46.348018885546665 0 7 0
5361 0 24 0 15.321423865180602 64.49124743569621 47.003253256562076 0 0 0
5272 0 24 0 22.00899477488347 64.31658785688802 45.78575438109677 0 0 0
5236 0 24 0 19.14488011997162 64.33603608526491 50.135219841153045 0 1 0
5003 0 24 0 26.15953234050323 58.1176774303612 46.782303930221296 0 4 0
3608 0 24 0 26.16720471000533 63.944856100454125 48.896666449561074 0 8 0
2825 2475 24 0 29.982022438879742 61.644188309645685 45.47346134034538 0 7 0
5364 0 24 0 31.572714678437833 57.824855479416094 47.81329057556699 0 0 0
2016 1666 24 0 34.264731493364515 62.16965445065971 48.43968428773016 0 6 0
4917 0 24 0 35.89449006333672 59.1778904302197 44.84516207525688 0 5 0
2175 1825 24 0 40.9945413833054 57.78403671568409 46.24453712070606 0 6 0
5020 0 24 0 38.5758283317399 63.91530738750718 47.318481684491104 0 4 0
1862 1512 24 0 42.78409827977562 63.663360870713795 50.085069412644 0 2 0
3301 0 24 0 37.81998067592997 59.461429682377265 50.00278623142838 0 8 0
2778 2428 24 0 44.17840344918732 59.19778311142706 49.92615595200782 0 2 0
2603 2253 24 0 50.36204063070994 58.31786885961669 47.21490214485917 0 2 0
2667 2317 24 0 47.216347591145045 63.054044239754646 47.37950705150305 0 2 0
1205 855 24 0 55.33692111085134 58.33646123420254 45.752631050572205 0 2 0
2655 2305 24 0 57.54816422668741 62.90737048257363 46.51016029707921 0 2 0
2048 1698 24 0 52.546055623010226 64.61792566863636 46.946496223878555 0 0 0
6095 0 24 0 8.541229425575578 66.373899462123 46.04820774072122 0 0 0
5870 0 24 0 12.226942520267757 69.94783183240959 47.868633520816566 0 0 0
5435 0 24 0 18.51875441038188 68.86015919139723 43.63690109772228 0 0 0
5394 0 24 0 21.689249181592107 69.97865043905936 47.95693924135416 0 0 0
5791 0 24 0 16.31522985727005 68.35267125433346 49.95449131937493 0 0 0
3675 0 24 0 27.81909171973419 65.8457030082667 43.99776405212285 0 8 0
3599 0 24 0 26.90962608263157 69.48788443034942 47.61092292276728 0 8 0
2142 1792 24 0 33.83623245355818 65.04468633103136 44.45751994939182 0 6 0
5143 0 24 0 30.95281088267965 66.12747644849583 48.3806863810358 0 2 0
4080 0 24 0 35.81943171353438 67.71776752964888 48.47663628530088 0 8 0
4640 0 24 0 31.73302304819916 70.04334422863742 45.308267226697794 0 8 0
2067 1717 24 0 39.80130647812075 68.11862086726514 43.632318302937044 0 4 0
2892 2542 24 0 40.96186318418759 68.13451972157137 48.75823764847689 0 7 0
2713 2363 24 0 43.79255529429325 65.58289964711342 45.277290773676924 0 2 0
1940 1590 24 0 37.56132483900628 71.89009503875613 46.189776185955274 0 2 0
1906 1556 24 0 47.14640849363185 70.02329327102213 43.69543362447887 0 6 0
1981 1631 24 0 46.89715201529022 67.71430205863676 48.74797321213193 0 2 0
1930 1580 24 0 52.444971798810684 69.4655895729205 45.1931779462529 0 2 0
1885 1535 24 0 56.965838225450376 68.31953199194221 47.68957204787537 0 2 0
5841 0 24 0 12.012396040824814 39.0963336377261 50.60109577311553 0 0 0
5863 0 24 0 7.855708058110538 37.06276619858503 53.397262659416725 0 0 -1
6008 0 24 0 7.956663332691582 42.030831417373186 55.896894949709235 0 0 0
5701 0 24 0 13.50430098596533 41.77085271526038 53.922726162321254 0 0 0
5931 0 24 0 17.125236277600397 38.19489298109356 52.8090419301389 0 0 0
5883 0 24 0 17.477172876536557 40.89347736532321 57.25157994053279 0 0 0
4060 0 24 0 21.89579853384065 39.836613598986325 53.439901609331805 0 7 0
5880 0 24 0 18.513981545721467 42.92304649292781 52.451849454426835 0 0 0
1985 1635 24 0 27.327985020318277 39.58648131983246 54.62720972305777 0 6 0
2570 2220 24 0 31.272838556206406 37.987976754455595 51.64369158570689 0 5 0
1824 1474 24 0 34.90969975930637 40.25141811817504 54.095083508263 0 5 0
1854 1504 24 0 30.750714616932136 43.073145042965876 52.14946047309811 0 5 0
1872 1522 24 0 32.02835844378332 36.361631657351 57.028126107342835 0 6 0
5064 0 24 0 31.345306008276363 41.66720436085608 57.28820457453758 0 4 0
1988 1638 24 0 44.251549418461835 37.32610062081958 51.33716873069091 0 1 0
1937 1587 24 0 38.79889962102178 43.08864466201202 52.06881510226686 0 6 0
2747 2397 24 0 40.74233055962923 38.80083845667618 54.30406637593405 0 6 0
2696 2346 24 0 43.94147122913135 36.192401710678915 57.37956043796452 0 3 0
2159 1809 24 0 45.001191943253055 41.49763064597604 55.208356348234986 0 1 0
2461 2111 24 0 47.71667497537809 37.58746117092074 54.70534541306843 0 0 0
1925 1575 24 0 50.44372422728315 42.98272109713207 55.60753355467667 0 0 0
2548 2198 24 0 52.14294426674039 40.06024880004405 52.05293547539547 0 0 0
3129 2779 24 0 56.19881696899413 36.7117701891117 51.08376351671378 0 0 0
2103 1753 24 0 54.18974746163805 37.36634632563464 56.24766144610607 0 2 0
2660 2310 24 0 57.39316193982189 40.669730259301666 53.86169638745994 0 0 0
5738 0 24 0 6.439073615851404 49.350946053183385 53.407190735655725 0 0 0
5638 0 24 0 10.929025193722818 46.71321867368182 55.899069087660315 0 0 0
5837 0 24 0 12.698460977836264 50.364899834487545 53.59210770935191 0 0 -1
5386 0 24 0 22.00947261939033 47.83436332886858 50.77698638552207 0 0 0
5960 0 24 0 17.25478545837432 47.95984625038426 52.69488648934128 0 0 0
3467 0 24 0 21.53870464765007 46.180463463971044 55.46385700535569 0 8 0
2738 2388 24 0 25.56967967383269 44.885695299095424 53.36398607645169 0 7 0
5563 0 24 0 29.570970712624437 47.58959876663536 55.26770685240537 0 0 0
2577 2227 24 0 34.1206891048966 45.303863064718875 56.00288540166048 0 6 0
1975 1625 24 0 33.93897231063648 50.067408847945586 53.097764686728446 0 6 0
2590 2240 24 0 44.019666449784836 45.54849349779699 51.18818703105379 0 6 0
2155 1805 24 0 38.92889244600865 48.18735783061851 53.33127066467387 0 6 0
2652 2302 24 0 41.0088252554153 45.00752511487988 56.0856476460649 0 1 0
2845 2495 24 0 43.568345256518576 49.66011294884109 54.40741930071104 0 6 0
2665 2315 24 0 47.63864051771561 49.14407943466669 51.123257611204274 0 1 0
2602 2252 24 0 46.56563468674203 45.84221828618028 56.315355850764014 0 2 0
1837 1487 24 0 52.389886553485105 44.82115719282932 51.44085926025464 0 0 0
2558 2208 24 0 52.82248462547693 48.79704928159446 54.33007670646201 0 1 0
2624 2274 24 0 58.29166197824018 45.893492074841014 52.315164821977355 0 1 0
1916 1566 24 0 56.52923951177208 49.44590657052271 57.15358065567685 0 0 0
1959 1609 24 0 56.012855424674065 50.144334307604694 50.71847201611322 0 1 0
5665 0 24 0 9.023900211388439 54.266707379714035 52.845518146084366 0 0 0
5923 0 24 0 13.26704130308473 56.91254322395354 52.08212230887616 0 0 0
5192 0 24 0 12.651204448594674 55.36059192280872 57.36002725393834 0 1 0
5511 0 24 0 9.464131330822688 50.964976594925155 57.50698120931064 0 0 0
5709 0 24 0 17.18657618456312 53.81680632494392 53.24720904818103 0 0 0
5409 0 24 0 21.121447896343614 51.50925712817594 56.01232828506016 0 0 0
5633 0 24 0 15.998473790713987 51.36012777280177 57.538511569035045 0 0 0
5517 0 24 0 25.561022283588546 50.697646202978234 53.126509085934224 0 0 0
6158 0 24 0 23.004236925139473 54.1568407015716 51.49420535599222 0 0 0
5668 0 24 0 27.75817667024704 56.10288432092956 52.14346963656586 0 0 0
5297 0 24 0 29.530979276519734 52.78757850436377 54.95553410682773 0 0 0
6089 0 24 0 26.075966201421835 56.02963831609927 56.99669613632393 0 0 0
2731 2381 24 0 31.484518947432164 53.34809094062695 50.400319707883355 0 7 0
2632 2282 24 0 35.570905265272934 55.19180701983164 52.90529486615761 0 7 0
1880 1530 24 0 39.50395064101143 52.96827883305756 55.54972148589819 0 5 0
2076 1726 24 0 44.80847271525801 54.41709106999336 52.69311141601138 0 1 0
2844 2494 24 0 48.39778659527166 51.10550086743041 55.70537759387008 0 2 0
2244 1894 24 0 50.70437276963552 52.566516380907935 51.66188065208741 0 0 0
2860 2510 24 0 50.38269003883269 56.49431864234804 54.97560425625237 0 2 0
2393 2043 24 0 59.96303605919544 51.0997810795337 53.81211120244447 0 -1 0
2194 1844 24 0 58.94282116010974 56.81497284387137 54.58699274384296 0 -1 0
2072 1722 24 0 54.84990889395415 54.001473087666966 54.48801612772289 0 1 0
5663 0 24 0 8.302848628423671 64.42192315112922 51.70140355635361 0 -1 0
6227 0 24 0 11.2473741613097 60.39689523122675 55.11338327827695 0 -1 0
6037 0 24 0 13.393033248566336 62.510676626973016 51.07526778530848 0 0 0
5851 0 24 0 21.61808096441409 58.41277438796117 55.89274268490817 0 0 0
5446 0 24 0 16.534215187647945 58.94959648257113 55.002673179358 0 0 0
5347 0 24 0 21.433842825478237 63.339889747209014 54.269788366441865 0 0 0
5913 0 24 0 23.018869982150633 58.94021113585724 50.559491404570885 0 0 0
4065 0 24 0 25.9310043999335 60.750244916368125 54.72707147971914 0 8 0
1842 1492 24 0 29.670466397910634 63.32186048418574 56.806526271206934 0 7 0
5190 0 24 0 31.124513796806482 58.100085255823274 55.88733132739253 0 1 0
3583 0 24 0 30.157656966526844 60.83031842327225 51.38872852372564 0 8 0
4703 0 24 0 34.67905527121889 61.082481496767016 53.61819980990437 0 7 0
2576 2226 24 0 37.00388352474337 58.26221865614093 57.531487970202 0 2 0
5262 0 24 0 40.53801578506826 59.872214368883355 54.16147634287956 0 0 0
1891 1541 24 0 43.07493076698444 63.974354845437084 55.89277773988223 0 2 0
2880 2530 24 0 37.96386176415353 64.28492068379728 52.69723174304866 0 2 0
1868 1518 24 0 49.142484464003694 59.91947674393927 51.62832212615336 0 2 0
2621 2271 24 0 45.385608113270884 59.030361375935605 55.8794673516236 0 2 0
2703 2353 24 0 50.460221371633644 62.07554481858822 56.32325190397442 0 2 0
2626 2276 24 0 47.683426030700126 64.6637093427771 53.15204489495612 0 2 0
2684 2334 24 0 54.20210793671092 57.85811423321775 51.01795280473651 0 2 0
1938 1588 24 0 57.68536325064788 61.39480794504734 52.417168818244114 0 0 0
2822 2472 24 0 53.25108525231562 63.106106233039434 51.85179429831919 0 2 0
2111 1761 24 0 54.58680514031703 58.72563037821951 55.88109055157245 0 1 0
2969 2619 24 0 55.031970315615986 64.38182243669088 56.51710170407486 0 -2 0
5516 0 24 0 7.817115362822803 70.72498199408865 56.62706287759787 0 0 0
5599 0 24 0 12.391614947490956 67.8948574371617 52.92714228762878 0 0 0
6071 0 24 0 10.562608017791696 65.41896596195681 57.235939937378525 0 0 0
4299 0 24 0 12.739788939948227 69.84018797251171 57.28122535964115 0 8 0
4470 0 24 0 16.355178494040764 65.19112621955833 54.70926561905626 0 8 0
6028 0 24 0 17.31905212077323 70.41921131719974 55.40604744655384 0 0 0
3783 0 24 0 22.42751084148454 67.8211945348701 52.5494096765977 0 8 0
4925 0 24 0 21.574785355709043 67.6468788616128 57.33973740394155 0 5 0
3591 0 24 0 28.91828772350219 68.73258269836958 52.786847998554414 0 6 0
4398 0 24 0 23.915974012208572 71.68991127039989 56.49308962549077 0 8 0
3885 0 24 0 26.92820685249209 67.816628255912 57.36426383181731 0 8 0
1923 1573 24 0 33.66782119840356 66.3500486993896 52.88451670740773 0 6 0
1878 1528 24 0 36.902006973819326 69.44545284789434 56.46896377249743 0 4 0
5056 0 24 0 31.987666504699693 68.30308071390402 57.37258632858846 0 3 0
2826 2476 24 0 40.81829582624041 67.97276308093193 53.967705469796215 0 6 0
2008 1658 24 0 47.4936987986924 70.89371542372969 52.433301097213246 0 1 0
2744 2394 24 0 51.02670667151899 67.35856868331994 55.85855347969461 0 2 0
1977 1627 24 0 45.41213595200415 68.38830874193233 56.80272907136874 0 2 0
2149 1799 24 0 52.789043040190265 68.4327987620136 50.887066861517944 0 2 0
1945 1595 24 0 56.17709370676506 68.54808143437083 54.841056501167046 0 0 0
2041 1691 24 0 59.78015881480602 66.19570027766825 50.65490883277711 0 0 0
5892 0 24 0 10.383501563221632 38.16135983217043 58.409549051647154 0 0 0
5727 0 24 0 14.531949408247202 37.97945959988983 61.217447554775354 0 0 -1
5734 0 24 0 19.572755806946372 38.48423012570671 62.5287864265562 0 0 0
5414 0 24 0 16.539996950331073 42.73933575383182 61.981860621074546 0 0 0
5805 0 24 0 22.177142830142845 40.734823811465255 58.2816420003506 0 0 0
6069 0 24 0 19.44094605678922 36.07896769207647 58.11909883921952 0 0 -1
6007 0 24 0 29.752257485545865 39.49899102650046 63.72481208297263 0 0 0
2717 2367 24 0 27.775765192333324 37.7009039046792 58.99260326237693 0 8 0
3818 0 24 0 24.073256447866697 36.841348471004096 61.38936614914922 0 9 0
1835 1485 24 0 36.78094541652936 36.98900327583793 58.41779322625384 0 6 0
2004 1654 24 0 34.63747298039372 41.160484043666756 61.83477134059886 0 7 0
2708 2358 24 0 39.52517751940352 39.32313664584275 63.29026192028784 0 5 0
2010 1660 24 0 41.738853674165085 41.03105381544625 58.97144214733205 0 6 0
2141 1791 24 0 43.585455300493635 36.95093587678981 62.40862289008137 0 5 0
2179 1829 24 0 44.21521825337326 41.469852887356225 64.79069299560632 0 1 0
2294 1944 24 0 49.959350119946116 36.52785430562269 59.662991905509266 0 0 0
2604 2254 24 0 47.531160291907796 40.88137425453582 59.38290067447748 0 2 0
2568 2218 24 0 49.072129312946124 39.033684353578394 64.25329323625925 0 1 0
2249 1899 24 0 57.94632892892306 37.31587439616172 63.77302222512946 0 0 0
2805 2455 24 0 53.288387483649984 40.03963973099705 61.07516076094031 0 1 0
3108 2758 24 0 59.63191356544478 40.87129076797564 58.92496535666969 0 -1 0
2178 1828 24 0 57.491472849260056 42.113865905493014 63.47833559065704 0 1 0
547 197 24 0 12.191723395475659 43.299928381374514 59.24518362993842 0 7 -1
5646 0 24 0 8.363991457574517 46.065217385642626 60.42192657596917 0 0 0
3425 0 24 0 12.955155892481162 49.04307187926606 60.497709781758324 0 8 0
6035 0 24 0 8.175529107604731 49.79177363547444 63.567480562363194 0 0 0
5419 0 24 0 11.503241653007157 45.05793505344932 64.27255175709334 0 0 0
5945 0 24 0 17.154435667517042 46.20606885656867 58.034795260772185 0 0 0
5117 0 24 0 20.622765985004097 49.47984816837857 60.82101697504022 0 3 0
5936 0 24 0 17.340672091081675 47.248046275112344 63.310404490230674 0 0 0
2132 1782 24 0 26.867568895929033 43.50407078987878 57.968570235466316 0 7 0
6169 0 24 0 22.73851577570531 44.95080373640661 61.368218318110756 0 0 0
6070 0 24 0 25.222614335378356 48.701564677174524 57.99518149737042 0 0 0
5341 0 24 0 28.31009474104722 44.43739139962227 62.86290022964807 0 0 0
4903 0 24 0 25.99066368932265 48.8364335519461 62.958969051689756 0 7 0
1984 1634 24 0 32.599491044175544 45.54467253959681 60.60067758372769 0 6 0
2642 2292 24 0 36.980394310896806 49.66141732180032 63.66655229524656 0 5 0
5293 0 24 0 32.02795838289456 48.90026674007462 64.41489027902882 0 0 0
5140 0 24 0 36.00822336661359 49.33879044163249 57.702878841717165 0 2 0
5308 0 24 0 30.044285180754184 49.8096363553896 59.983311879291485 0 0 0
2126 1776 24 0 38.2878269977377 44.86798145329304 60.14404521019172 0 7 0
2800 2450 24 0 41.193193043975235 49.321502443137476 58.98282278731301 0 5 0
5054 0 24 0 41.02494062965341 45.854935876755945 64.2102974854577 0 3 0
2846 2496 24 0 44.53930275458778 44.908198926545204 60.96446758890348 0 5 0
2116 1766 24 0 51.93250079404376 43.77132734111136 63.873464343054 0 1 0
2662 2312 24 0 45.6852350204688 49.46541715370463 60.91085948264845 0 3 0
3056 2706 24 0 49.96964821587932 46.64713030568471 60.37069224247303 0 -1 0
1928 1578 24 0 59.7066636238036 45.6140169629978 60.886113969292026 0 -1 0
2024 1674 24 0 55.18908179646272 44.68349559458502 58.01742236007101 0 0 0
3104 2754 24 0 55.4147931714807 48.54729354521187 62.35752045602954 0 -1 0
6075 0 24 0 11.034013543505035 54.43724989629144 62.00526045266219 0 0 0
1895 1545 24 0 16.79026450873792 52.65298344228308 62.75653360776613 0 6 0
6062 0 24 0 21.952146169583582 54.88858174425388 61.49403689453843 0 0 0
5687 0 24 0 18.546447445539442 57.13624073105393 64.69987291258924 0 0 0
2083 1733 24 0 29.45492425919443 56.918907133416376 61.90301763912602 0 6 0
1922 1572 24 0 33.35309845500577 54.203503322451546 58.09192354108135 0 6 0
2181 1831 24 0 33.71462341266503 54.17205365528796 62.77342580215342 0 5 0
1825 1475 24 0 44.42815902433234 53.39423865193743 58.53688063410292 0 6 0
2789 2439 24 0 41.83794508856665 50.58269626801721 63.81631814113254 0 3 0
2630 2280 24 0 38.205091609448736 53.71238598543426 60.42905110044398 0 6 0
1976 1626 24 0 43.491849393799896 55.15462560543264 63.490426675353625 0 6 0
2473 2123 24 0 48.58884973763333 54.13138255313789 62.74923182331844 0 0 0
2018 1668 24 0 51.83599720190599 56.71914247854407 59.65874121042276 0 0 0
1822 1472 24 0 52.23118354167958 51.70445698731028 58.673495791425566 0 0 0
2157 1807 24 0 52.19843124196315 57.524093772150785 64.50626718189756 0 1 0
2853 2503 24 0 59.3110965914947 50.99311651885707 62.26365182265736 0 0 0
2193 1843 24 0 54.765481077288506 52.98853479073125 64.36733442464099 0 0 0
1961 1611 24 0 57.5910652848851 54.43059258726148 58.69374891974175 0 0 0
5890 0 24 0 6.76151982698043 63.363510370543146 62.75839951992227 0 0 0
6150 0 24 0 9.367536724475588 58.48376286135116 59.88355890375475 0 0 0
2716 2366 24 0 14.56810203151894 58.15515706434496 61.34409570123087 0 8 0
5365 0 24 0 14.711136338968101 62.42656241344696 58.49050103162047 0 0 0
5299 0 24 0 12.666730338182997 64.00184400918317 62.99440989427928 0 0 0
5935 0 24 0 17.749630752875838 62.534446307183835 63.47398614387787 0 0 0
5914 0 24 0 19.57672452424466 62.95694583956457 58.86468033467007 0 0 0
5774 0 24 0 22.639388267139278 59.99787522035119 61.40150761420258 0 0 0
5553 0 24 0 27.442900075967405 60.39312400499379 59.75737423666983 0 0 0
5496 0 24 0 24.158497854898613 64.32039888478826 60.48383375145646 0 0 0
5227 0 24 0 27.80843830788217 60.53318980124826 64.39675739756835 0 1 0
2017 1667 24 0 37.46654888580262 57.988862561471656 62.393488938106465 0 3 0
5076 0 24 0 34.77833712721982 64.21941835496257 57.62577595425115 0 3 0
5141 0 24 0 32.765660659011374 60.54629999996455 59.993482036394774 0 2 0
1941 1591 24 0 41.90925304482628 58.16242209305438 59.16621249602999 0 2 0
5113 0 24 0 38.730528862793236 62.46268587844743 60.43668228761468 0 3 0
5249 0 24 0 44.281098691779306 63.61878575981121 60.341606669089984 0 0 0
2795 2445 24 0 42.05657410424228 59.795297534105465 63.74121578227302 0 3 0
1973 1623 24 0 47.02249483584554 59.14116636511774 60.579606471854156 0 1 0
1210 860 24 0 49.62049069560233 62.08394541650731 63.700917256693636 0 1 -1
2399 2049 24 0 56.64257174406692 58.01885317062655 62.54404672067241 0 -2 0
1299 949 24 0 53.51380544428652 61.48382456208135 60.03425125175813 0 2 -1
1926 1576 24 0 57.88814065417616 64.06958719208588 61.086120191822936 0 2 0
2144 1794 24 0 59.996763129462714 60.580267934425876 58.43028236214857 0 2 0
5840 0 24 0 11.734222323224131 71.9267403633428 64.65446660448745 0 0 0
5558 0 24 0 8.895606173584085 67.77937294209319 61.063628322691734 0 -1 0
6091 0 24 0 16.86268063981275 67.10961519418612 59.469943321828104 0 0 0
5676 0 24 0 20.348276567275608 67.2864422003085 63.11797904084727 0 0 0
5368 0 24 0 19.588597580642286 71.9877817793017 59.39483608476942 0 0 0
5226 0 24 0 24.13626854225199 70.24791342954708 61.775943657232844 0 1 0
1987 1637 24 0 29.53105115344839 70.26566541499845 60.9660612591384 0 2 0
2746 2396 24 0 27.546455967310262 66.37799547048847 63.92093262540805 0 6 0
4968 0 24 0 31.906819533222013 64.93766240562458 62.063192128930496 0 4 0
2837 2487 24 0 35.87150296329282 71.95928907070086 64.67850123810909 0 5 0
1242 892 24 0 35.659304806587315 67.7667697163162 61.75595680229229 0 4 -1
1840 1490 24 0 39.38660504727394 71.82815878519656 61.086134272058246 0 2 0
2858 2508 24 0 41.01466618307836 67.70707976730282 58.96986632233266 0 4 0
2078 1728 24 0 40.65512299752005 66.00119184442416 63.97545612032133 0 5 0
2879 2529 24 0 44.912449861612444 67.50889616184048 63.11400020838096 0 2 0
2850 2500 24 0 44.33046970493939 71.29071448694239 60.54148806440669 0 3 0
1867 1517 24 0 48.96784912638612 65.81512120481548 60.13935760483731 0 2 0
541 191 24 0 49.42905520247108 70.49234621915635 61.69648296912879 0 2 -1
2725 2375 24 0 57.54835169653378 70.05223260563051 63.293402276754286 0 1 0
514 164 24 0 53.77419967547005 65.78684049965531 63.194131634475106 0 2 -1
553 203 24 0 59.40439855971224 68.97121750361109 58.57895743637229 0 1 -1
2171 1821 24 0 54.526197570592586 68.97160248099645 59.33159111795219 0 0 0
5520 0 24 0 11.270980550316978 43.11517503236266 71.49561911996662 0 0 -1
6082 0 24 0 13.568262273752227 38.85944503019578 68.10073426384983 0 0 -1
5744 0 24 0 17.783454883053142 39.95304901928489 71.63423111656729 0 0 0
5617 0 24 0 20.489891556757147 36.01425753129326 69.9955943332473 0 0 -1
3588 0 24 0 19.762668238705594 40.847950571876765 66.66981718560552 0 8 0
5673 0 24 0 17.027007852957595 36.11687281586991 66.02440075781054 0 0 0
5562 0 24 0 23.89926457783687 37.19113078766293 66.4393825458392 0 0 0
3292 0 24 0 23.827273049418853 39.78619078162499 70.76309913824595 0 8 -1
2556 2206 24 0 29.009577035795406 39.61188757576204 68.86977525555585 0 8 0
3696 0 24 0 24.821903600628215 42.1820781903556 65.72209138299796 0 8 0
1118 768 24 0 37.02280085526909 39.340522372490135 71.86985736823662 0 3 -1
2807 2457 24 0 34.38701642601659 38.58230320702378 66.78479387941034 0 5 0
2702 2352 24 0 40.28189965902598 41.9144844501444 67.74679756715666 0 5 0
2634 2284 24 0 44.851460658483155 37.41145917269754 67.78306911392193 0 3 0
2029 1679 24 0 39.66598642612883 36.62650478866104 67.89489815118986 0 4 0
1860 1510 24 0 46.661363041951056 40.61276921338844 71.9035420607827 0 3 0
2704 2354 24 0 49.99863118860946 41.85068775136509 68.23997759076595 0 2 0
1259 909 24 0 56.397785960935636 42.06246099879216 69.80829333178403 0 2 -1
2455 2105 24 0 54.20902422987118 39.75135552436456 66.30985163445798 0 -1 0
892 542 24 0 55.60344627404604 37.02510832078285 71.31174002516605 0 0 -1
5523 0 24 0 6.638121525914188 45.11552050099635 69.61488946188058 0 0 -1
6093 0 24 0 13.438592885035897 49.890800991977656 65.3554582628181 0 0 -1
5917 0 24 0 10.711693262509419 48.15795257773042 68.9165736111443 0 0 -1
3273 0 24 0 21.575503110085656 48.865816519775564 71.44966945571926 0 9 -1
3826 0 24 0 16.095876618420185 46.77610029700036 71.8250652514661 0 9 -1
5739 0 24 0 15.75740212537917 44.147529934266146 67.19965828480888 0 0 0
5869 0 24 0 20.15606007719782 43.91592493167923 70.71992213942328 0 0 0
4679 0 24 0 21.757527806035444 46.774447167771356 66.68134479370485 0 8 -1
6154 0 24 0 17.93035368334083 50.125428081703376 67.60825410483899 0 0 0
6100 0 24 0 24.97425994570032 45.11798620792991 71.11481263995847 0 0 -1
565 215 24 0 27.992926363198897 48.096707428893936 67.38294141558121 0 7 -1
2815 2465 24 0 30.923557481283062 43.520295184679085 67.25878325998357 0 8 0
3607 0 24 0 34.9937414239269 43.28584546295974 70.1047353469098 0 8 -1
5310 0 24 0 35.75837276202568 44.72501535432472 65.00949014294129 0 0 0
2069 1719 24 0 33.554577303418704 48.261173310981874 69.16883829525968 0 5 0
2023 1673 24 0 38.441334804776474 47.189824420571234 68.70495550381371 0 7 0
2901 2551 24 0 43.607644301132886 45.6953284182694 69.92398785593224 0 2 0
2649 2299 24 0 51.13461664367178 48.97704148793322 64.82059229074878 0 3 0
2022 1672 24 0 47.18899342303235 45.65090792362873 64.990068762489 0 1 0
2852 2502 24 0 49.949836775600836 49.03713421519658 70.42650669800625 0 3 0
1282 932 24 0 57.354361540375976 47.08062473190401 71.29670917180883 0 1 -1
1417 1067 24 0 53.406900777828845 46.02436368454176 68.12169817607166 0 2 -1
2153 1803 24 0 58.71312292326657 46.85580861148109 65.51043599382658 0 1 0
6034 0 24 0 11.88108869580511 55.855808169840074 71.44947867284975 0 0 -1
6178 0 24 0 14.106622749963448 51.52805755378742 71.00784699077947 0 0 -1
5994 0 24 0 10.620109353177535 53.64668017282693 67.3831230244415 0 0 -1
6023 0 24 0 15.718209216000787 54.453145378684134 67.94666496465938 0 0 -1
5903 0 24 0 20.662826306680913 56.001524362450255 68.99144943392366 0 0 0
5242 0 24 0 22.44884953512755 51.98034977506635 65.87186247794835 0 1 0
2832 2482 24 0 24.097346133149166 57.07706418560006 65.74424484320018 0 8 0
2064 1714 24 0 25.06498380066357 53.126662870579324 70.23469420693957 0 4 0
2066 1716 24 0 28.478003192992837 52.91432843842422 65.18256621329739 0 6 0
619 269 24 0 28.829917907943905 56.98909817305411 67.8933806267725 0 5 -1
702 352 24 0 30.001562284029735 51.93472440314528 69.81087212403652 0 7 -1
5121 0 24 0 36.42482253077849 51.771579123099976 70.23743704925606 0 3 0
1291 941 24 0 34.118970528276186 55.48604067647691 67.87882721577816 0 6 -1
2572 2222 24 0 42.04315477635226 50.46734575592337 68.70766143903677 0 4 0
1942 1592 24 0 38.60662081284462 53.947829990064385 65.78520364911273 0 1 0
1911 1561 24 0 43.081521096747196 55.87138164592912 68.33044269430549 0 5 0
1155 805 24 0 48.55850041360279 56.28863054468524 71.48777496708013 0 2 -1
2875 2525 24 0 45.94490865740305 52.33950864614319 71.21600164797896 0 2 0
2894 2544 24 0 46.142984552464036 50.65625316172931 66.57884911636457 0 2 0
2651 2301 24 0 50.23320026423436 53.47609484868923 67.29436563810806 0 2 0
1204 854 24 0 59.56248985036528 54.98187727920952 69.95394548867924 0 2 -1
1183 833 24 0 55.8443542095757 51.05598381373857 68.73876443334593 0 1 -1
1920 1570 24 0 59.61784748661399 55.175146675177515 64.8602730680077 0 0 0
579 229 24 0 54.88379683667427 56.81950930023393 69.29266879782998 0 0 -1
5032 0 24 0 11.58209001777735 59.75464384862601 64.85947954304328 0 4 0
5613 0 24 0 9.24261014846068 63.32362814773391 69.22069416733152 0 0 -1
5828 0 24 0 14.425066860506746 63.63384497063075 68.12714063876399 0 0 0
4127 0 24 0 16.011598823288544 59.37949016918986 69.5675631976852 0 8 0
5518 0 24 0 20.62063144063141 61.355203686734264 68.28535297965054 0 0 0
3903 0 24 0 23.93504787715497 63.207142635347594 65.16833118467666 0 7 0
4964 0 24 0 24.44996623259437 59.01361202838303 70.61094997218804 0 4 0
1345 995 24 0 27.18404613605788 62.88029592127822 69.0603736609942 0 6 -1
2052 1702 24 0 35.7470763574617 63.43392971483899 65.13676776964591 0 5 0
1276 926 24 0 35.962940869924864 62.468793399021116 70.34045388168913 0 6 -1
2674 2324 24 0 32.78387624795689 59.12211318681771 64.84760950169198 0 3 0
2734 2384 24 0 31.182809918345647 63.83344436252869 66.57604497197828 0 3 0
2841 2491 24 0 38.890096169334264 58.5454972768634 67.9727359272164 0 7 0
1855 1505 24 0 40.547989119094204 62.952758173199314 68.68916716934 0 5 0
443 93 24 0 44.839840498816656 59.82362584840423 70.78388403411108 0 1 -1
2866 2516 24 0 44.87382236379573 63.379037253134925 66.7080307155098 0 2 0
1268 918 24 0 48.33196973571951 64.67448432027244 69.88902907916895 0 2 -1
2896 2546 24 0 47.3809718390815 58.64039423683543 66.21541609961132 0 2 0
1171 821 24 0 51.20124018026098 60.71957938355811 68.57366081442844 0 2 -1
736 386 24 0 59.920187797568154 64.76546418730072 65.77937548318937 0 2 -1
1411 1061 24 0 58.75804414429103 60.459026649656934 70.80379386677704 0 2 -1
538 188 24 0 55.51653698997902 61.87886448163696 65.73491125435204 0 0 -1
5780 0 24 0 14.551472236710024 67.96333711073929 65.08441700551126 0 -1 0
5899 0 24 0 12.012987137628029 70.75129140507592 69.58615634636254 0 0 0
6149 0 24 0 9.858276258913062 67.22019990673377 66.65159173547411 0 0 0
5317 0 24 0 19.05863103850394 71.45748448696122 65.50892526118842 0 0 0
3553 0 24 0 18.32571602926443 66.65510672060599 68.09161188977232 0 7 0
4956 0 24 0 25.015878293165574 70.75695140750051 71.9593605059327 0 5 0
4628 0 24 0 23.11116063424203 65.16275630523727 69.80481739088755 0 8 -1
4390 0 24 0 27.839521596019242 71.65868227876398 65.47564737151663 0 8 0
5503 0 24 0 23.2967080642873 69.12156013984765 66.9662779133091 0 0 0
4986 0 24 0 28.754222500156008 68.73449591828991 69.32703711466341 0 4 0
1432 1082 24 0 32.8736252607008 71.95193099375331 70.99912727893741 0 6 -1
3284 0 24 0 32.3053936576993 68.96092306419698 65.59399696496071 0 8 0
578 228 24 0 33.79611883462228 67.13080264250685 70.1937082768781 0 3 -1
2087 1737 24 0 37.4428617395565 67.92024071258926 66.72491909392824 0 6 0
1428 1078 24 0 41.72485167721749 71.22155876564203 65.53353518715254 0 2 -1
2011 1661 24 0 43.74291221551415 67.89602778448199 69.08515268244406 0 2 0
511 161 24 0 38.463988196146886 71.85112598881942 70.40630333707063 0 5 -1
437 87 24 0 48.62676984121843 70.59567926489962 69.35543344168748 0 2 -1
2802 2452 24 0 49.05244020440874 66.83754198049573 65.79643590892508 0 2 0
1114 764 24 0 53.342520679304506 69.88509392569894 66.65166863844489 0 2 -1
1439 1089 24 0 53.11483762721159 69.37351460278418 71.6841678730026 0 2 -1
2188 1838 24 0 58.851148438948115 69.52937949387236 68.39302911859123 0 2 0
470 120 24 0 54.287117580957144 65.12911161493827 69.06352486706025 0 2 -1
1270 920 24 0 62.828061351335016 5.2029103265820025 0.8675834124614975 0 3 0
1527 1177 24 0 66.49978091270705 4.764368344832411 5.5080458923708076 0 0 0
509 159 24 0 63.264408864101654 0.41568710470730574 2.3731843924479623 0 4 0
984 634 24 0 72.0445986812658 6.244032452072441 2.674369388571506 0 -2 0
750 400 24 0 73.87999444333003 2.1164546614639494 5.493558140259763 0 -2 0
908 558 24 0 73.66058142705216 2.458664578275354 0.20376980491410246 0 -2 0
3258 2908 24 0 77.89230359190813 3.6430657065188212 3.336723896533887 0 -2 1
2367 2017 24 0 75.98155539658053 6.899307998232882 6.741902783268364 0 -2 1
1770 1420 24 0 83.38235058799737 3.7665086856972736 6.320490946650543 0 -2 0
1716 1366 24 0 87.65712494419655 4.301033697172179 3.6813584110335307 0 -6 0
1799 1449 24 0 83.37210804287031 4.656839232874 1.0387909462232838 0 -4 0
3871 0 24 0 93.04194489345974 3.493461904657679 2.140331964967113 0 -8 0
5284 0 24 0 96.93931064603409 6.2822822513689704 3.8764076990688054 0 0 0
843 493 24 0 92.72049105750098 6.0353142197797975 6.376005327144584 0 -8 0
3546 0 24 0 100.39171227206909 2.683541997186365 3.7369420329918666 0 -8 0
6042 0 24 0 102.02182152730333 6.811402553702721 5.909274378789734 0 0 0
5213 0 24 0 101.67237315840465 6.734701896843181 0.9342256508549144 0 -1 0
775 425 24 0 104.87653537126216 1.4750380189175905 0.9100535213770828 0 -8 0
5962 0 24 0 105.58119683135736 0.7206117821204616 5.927483264223375 0 0 0
5309 0 24 0 106.12329128199754 5.412270701980916 4.011077702063369 0 0 1
6108 0 24 0 110.11378121467277 2.4602297240762048 2.528551776884251 0 0 1
1730 1380 24 0 67.2358569401987 7.611575397392409 1.0611921160591176 0 0 0
1337 987 24 0 62.694955552149636 8.961495360822566 3.9788358935567585 0 1 0
2589 2239 24 0 63.205451377804074 13.919641991223074 2.7138624037003165 0 1 1
742 392 24 0 68.21153630931583 13.042843011124544 0.7790705121514352 0 -1 0
904 554 24 0 69.24818381078717 10.210287207653272 4.683398701708678 0 -2 0
2404 2054 24 0 72.35763315699437 14.004893333189576 5.23509202053136 0 -2 1
1667 1317 24 0 75.67344014839111 10.456967388615453 2.574760751389316 0 -2 0
1631 1281 24 0 81.08664071194896 8.966640244302395 0.4568581647813027 0 -3 0
1633 1283 24 0 80.72187072216936 8.24901839348293 5.994081077377358 0 -3 0
1723 1373 24 0 81.62263736532294 12.721550374354269 4.2510755315761255 0 -5 0
1679 1329 24 0 78.73559630687532 13.531033844340971 0.6812224636434753 0 -3 0
5211 0 24 0 84.28608521670071 12.97683191683517 0.1650274775910946 0 -1 1
1746 1396 24 0 85.31200041908552 8.907110789877487 3.736300049862664 0 -6 0
1701 1351 24 0 89.1815234996189 10.3850812800368 6.010701568432995 0 -7 0
2224 1874 24 0 87.25031483947784 14.315797413878279 4.440832362124677 0 -3 1
5013 0 24 0 93.2329275029745 13.927485485807784 0.17444194451516368 0 -4 1
3203 2853 24 0 93.06193033750046 9.099984496114619 2.1111618147795235 0 -7 1
1585 1235 24 0 92.79601293724308 13.376809114062224 5.052827125942758 0 -7 0
5186 0 24 0 95.98222547146302 10.2521931632428 6.893117450379041 0 -2 0
5304 0 24 0 99.70970611527824 10.690076517504409 2.957201396999934 0 0 0
6224 0 24 0 104.79092955646313 11.16601168802285 4.639407314251998 0 0 0
5771 0 24 0 110.03597036637076 11.19058191031695 4.776468296544811 0 0 0
6242 0 24 0 107.9786518889565 9.911053272911461 0.4539140778761546 0 0 0
2479 2129 24 0 62.09878716825841 19.381986593185747 6.514992940031292 0 -1 1
2398 2048 24 0 67.39473821727854 15.985043290431362 4.622837509261365 0 -1 1
932 582 24 0 65.38548988706205 20.973166702169564 3.1119833584841663 0 0 0
3144 2794 24 0 60.6094014924537 17.926208281359493 2.005652983016706 0 0 1
2918 2568 24 0 69.91145892637097 18.246925300985062 1.5745222079586543 0 -1 1
1471 1121 24 0 74.28220129589148 15.539341247671864 0.6141494399578412 0 -2 0
1726 1376 24 0 73.22743578006997 21.221233999524813 3.724157549616575 0 -1 0
828 478 24 0 76.72477114314462 16.796026646117728 6.352871011430856 0 -2 0
1661 1311 24 0 77.960799901027 18.827003202946905 2.1215663190772274 0 -4 0
1781 1431 24 0 82.0554585790733 17.245544295674023 6.926372939799049 0 -4 0
1727 1377 24 0 78.1600018341653 21.34937682734219 6.491609920826686 0 -4 0
1509 1159 24 0 83.1830622954996 17.325714699866676 2.0429331878654713 0 -4 0
1016 666 24 0 86.04090226381832 19.62195587866269 5.563081556621045 0 -6 0
1078 728 24 0 87.3661267871966 20.575089656355622 0.5211338530655278 0 -6 0
3669 0 24 0 97.26420597502447 15.253524790432003 3.2416173699232895 0 -8 0
5106 0 24 0 91.03262280164967 18.42879451632914 2.990995613434822 0 -3 0
2227 1877 24 0 94.86935705057486 18.17133285712167 6.8240577527972786 0 -7 1
5592 0 24 0 95.34149630403726 19.410474656797838 0.9283941805368866 0 0 0
5927 0 24 0 102.37402488192743 15.879949670638759 3.6578213616941917 0 0 0
4756 0 24 0 98.95548926527476 19.537419945449418 4.658003947206363 0 -8 0
5631 0 24 0 106.30804462702916 20.56869692235247 5.506964114553541 0 0 0
5772 0 24 0 111.34269515051282 18.112918898452527 5.468553151015926 0 0 1
5130 0 24 0 107.64099799321335 14.634505510826749 1.4948230774957239 0 -3 1
1827 1477 24 0 60.811651698347326 24.094677344441916 3.9153455483120796 0 3 1
1192 842 24 0 65.20167162773137 27.102281265316368 4.907410767279464 0 0 0
1348 998 24 0 60.508564064208755 27.94124736932523 0.5650747803711368 0 0 0
798 448 24 0 65.32836362399587 25.455976126272056 0.343463719917298 0 -1 0
1756 1406 24 0 69.82700970218663 25.47455772734653 3.454436841380003 0 0 0
1622 1272 24 0 74.21319416522432 26.491170777691625 5.904554055616876 0 -5 0
1514 1164 24 0 78.98435965974772 26.66871517790241 5.070208082688452 0 -3 0
942 592 24 0 75.27614205411291 25.248590910219566 0.3462755992754432 0 -2 0
2989 2639 24 0 82.77394639877298 22.068234469543945 2.854388833061192 0 -3 1
3025 2675 24 0 88.0720515336318 24.23702940748023 3.69402710826274 0 -6 1
1789 1439 24 0 83.73744578419209 27.29301912658097 5.225436077999463 0 -4 0
1777 1427 24 0 93.29031730858794 22.69570000548613 4.478669554725922 0 -6 0
4278 0 24 0 94.12219879607898 27.168040060852764 2.3941404701430806 0 -9 1
947 597 24 0 92.04226440766656 27.647517380922572 6.695003882750281 0 -7 0
3029 2679 24 0 91.71099735409193 23.20839594527514 0.06017367027524011 0 -4 1
4158 0 24 0 97.76552879715612 23.710089507969812 0.5526116868344003 0 -9 1
1692 1342 24 0 102.45637662675117 22.76709387826575 2.326296898998488 0 -7 0
1559 1209 24 0 98.33522723121963 25.24397833298667 5.419762456061632 0 -4 0
3003 2653 24 0 101.22805319239302 27.987272097780785 1.9880549537188297 0 -7 1
4869 0 24 0 105.77414398487707 25.419302442899674 5.229635261340572 0 -9 0
5455 0 24 0 111.1834055361769 24.529373851285452 3.6416609148475643 0 0 0
1733 1383 24 0 110.09714222370344 28.63302210939515 6.275694812513168 0 -7 0
5499 0 24 0 106.34713419547094 27.250277016346853 0.20679541883284935 0 0 1
6185 0 24 0 116.27550114814355 25.288269848720677 1.4972346026970864 0 0 0
2637 2287 24 0 66.46264997919207 35.091061580871916 1.3216202279669906 0 0 1
2943 2593 24 0 63.265918375682034 31.230384113465735 3.394632366637956 0 0 1
1227 877 24 0 67.05027323397812 34.59278187058145 7.125364101583465 0 0 0
1531 1181 24 0 73.28938691081684 31.4474375207343 5.059618506353203 0 -4 0
3156 2806 24 0 67.97003732848817 29.986754376467793 1.3129819585509601 0 0 1
1058 708 24 0 74.5562592954589 34.28306986061845 1.1256195882580766 0 -2 0
2325 1975 24 0 77.3658072891018 30.15315015208808 1.6489828013339438 0 -3 1
1786 1436 24 0 77.60257069157153 35.67006470248311 5.235776687969274 0 -1 0
743 393 24 0 81.4973416496837 32.05207677676089 4.183736605726514 0 -3 0
791 441 24 0 87.45801817341605 30.708991147899276 3.5355150011385175 0 -3 0
1090 740 24 0 86.26425676156086 34.766663367772445 6.459467194753401 0 -4 0
1477 1127 24 0 89.14713384395172 35.87677874670202 2.0931572356008052 0 -4 0
906 556 24 0 84.52330803021857 35.34367789926078 0.3653587310787879 0 -4 0
773 423 24 0 93.18704580705047 32.875267664922795 3.925766495705885 0 -6 0
5075 0 24 0 102.78083593846281 28.86570812533248 6.8951643916627186 0 -4 0
2944 2594 24 0 101.18013402679784 33.20813179255267 2.1077452301303077 0 -7 1
825 475 24 0 97.56720170969503 30.436898386894786 4.934009405492261 0 -7 0
5107 0 24 0 103.47087289936408 35.41979737282374 6.554817534779189 0 -3 1
2320 1970 24 0 98.33705438275223 35.68452277815955 5.600674235070153 0 -7 1
5024 0 24 0 110.88674747380107 29.5428362745319 1.3256069431383042 0 -4 0
3350 0 24 0 105.72318809924204 31.229506912125704 3.200117081676398 0 -9 1
5445 0 24 0 109.56383302223874 33.78713517958736 4.48239709695306 0 0 1
5247 0 24 0 105.3875839817049 35.39081431867491 0.20576645675631391 0 -1 1
5958 0 24 0 114.5903949189226 32.0046262414291 4.331519386844751 0 0 0
2019 1669 24 0 60.70223659401957 2.4847297886769466 11.797539826107643 0 1 1
1674 1324 24 0 65.61821627404969 3.3793593872131775 11.219413026091928 0 -1 0
1191 841 24 0 63.07241678844053 1.2597280709861431 7.690527580566513 0 0 0
522 172 24 0 61.7710192912853 6.49705990125041 8.697548614898453 0 3 0
1640 1290 24 0 70.63079979306379 6.3859311391706175 7.630217320857955 0 0 0
1530 1180 24 0 73.31171882062938 3.8701268299386022 10.72424687576679 0 -4 0
1616 1266 24 0 69.71673443224205 1.7108637464136862 8.56565230023452 0 0 0
794 444 24 0 69.38761771093786 7.149770846559013 12.156582516046722 0 -2 0
1549 1199 24 0 79.20458280370583 1.2503284312421779 8.114549398551665 0 -2 0
1022 672 24 0 77.32155188779645 1.8546606245766304 12.830919902699154 0 -2 0
1534 1184 24 0 80.1091001088544 5.805900537538894 10.302980722230155 0 0 0
786 436 24 0 86.26146447718382 3.697186643975426 12.66709198543873 0 -3 0
1694 1344 24 0 89.4271639360962 2.8011345422405474 8.581650981847432 0 -6 0
1043 693 24 0 86.09422242653632 7.083978394313341 8.778129000562965 0 -4 0
789 439 24 0 92.78002984977778 3.392341078353182 12.04233929327819 0 -7 0
1720 1370 24 0 94.61524273468062 1.9508277795414282 7.9081082016714825 0 -7 0
5951 0 24 0 98.95498469305238 4.181019457279171 8.222664168741721 0 0 0
5726 0 24 0 104.0213768980941 3.429725894175531 9.561190676948442 0 0 0
1501 1151 24 0 99.95428121382112 2.884262648356002 12.645878196282478 0 -8 0
5645 0 24 0 109.53965999419484 2.8349940964031513 7.7073091422108675 0 0 1
5669 0 24 0 107.20296441250765 6.85595030431804 13.27972623342394 0 0 0
3936 0 24 0 110.02244301068475 1.3029335475705843 13.42604396326005 0 -8 0
456 106 24 0 60.53286962826802 10.497842554322768 11.670893786592266 0 3 0
1525 1175 24 0 66.24510138129196 9.318908457948151 8.797186625533536 0 -1 0
1186 836 24 0 64.3136512506228 14.277413695493502 13.817700440768967 0 2 0
1948 1598 24 0 61.559035125489864 14.361422872098252 8.832695268286543 0 0 1
1214 864 24 0 65.42249990417716 9.384374174565664 14.38995785320433 0 2 0
1643 1293 24 0 68.03701042859916 14.37995042801096 9.136169675930311 0 -2 0
797 447 24 0 73.21773983491396 14.342966959473742 10.170096987421218 0 -1 0
1140 790 24 0 70.87457407815207 11.907451210356964 14.3669610549811 0 0 0
1765 1415 24 0 77.28152767348062 11.856348470297789 7.385438114618922 0 -4 0
1003 653 24 0 75.11701246152437 9.219597088682985 11.19427200256892 0 -2 0
805 455 24 0 80.9189232634329 10.440413784816508 10.622970020892456 0 -4 0
5016 0 24 0 84.44776031186151 13.113628640189944 8.64020975861193 0 -4 0
1675 1325 24 0 88.67423456628298 13.10942111057488 11.598922803971332 0 -6 0
4811 0 24 0 84.2320353763406 8.536162568862123 14.12422948064218 0 -7 0
5987 0 24 0 95.8833016036057 7.271692249748663 11.248745027242704 0 0 0
3950 0 24 0 90.40317067114171 8.493259155494021 10.429060847498462 0 -8 0
981 631 24 0 93.73799778826773 12.85795399898824 9.900583316478516 0 -7 0
6043 0 24 0 101.65411929813115 8.131743598360423 11.142645271437996 0 0 0
939 589 24 0 102.79982872947886 12.971423995941581 8.964343192970196 0 -7 0
5306 0 24 0 98.44000942977377 12.271144366864561 12.564168440537486 0 0 0
6175 0 24 0 106.39700922375458 7.535884021790822 8.633799944151182 0 0 0
6157 0 24 0 108.17576128313134 11.54836985289772 10.39581813348407 0 0 0
1261 911 24 0 64.58020679896474 19.598202791069912 12.530590437687184 0 0 0
1553 1203 24 0 66.62604033683829 20.52115708203939 7.825316626012228 0 -1 0
1074 724 24 0 70.94720482575359 18.17080945310921 7.267895228787306 0 -2 0
1470 1120 24 0 68.39584902475966 16.86954569138805 14.353452204117866 0 -1 0
865 515 24 0 74.57928016549666 20.54582215693961 10.061111994644595 0 -4 0
783 433 24 0 77.98509128452793 15.58301446206937 11.048647526151576 0 -4 0
5078 0 24 0 80.73529007848592 20.09022864399133 10.794560405534973 0 -3 0
829 479 24 0 82.54939016874053 15.076625481839196 13.047149752798397 0 -7 0
3058 2708 24 0 85.77557756272263 17.931756963658447 10.479584082157265 0 -3 1
1056 706 24 0 89.96063368133194 16.544376755282368 8.075724619773803 0 -7 0
970 620 24 0 89.99171418890406 18.190346964429306 14.089792557878537 0 -7 0
5314 0 24 0 96.152226155215 16.659695756375083 12.475600082176058 0 0 0
5178 0 24 0 93.38819120417728 20.8212861938408 11.103994196488905 0 -2 0
5621 0 24 0 98.16463240505752 14.563381556383057 8.253265480686782 0 0 0
5424 0 24 0 102.33066582053283 18.066497144789253 8.417486471277954 0 0 0
5986 0 24 0 101.58009286659443 16.24515847973754 13.406939371874813 0 0 0
4588 0 24 0 100.31408491795442 20.513743676313208 12.360956497020355 0 -8 0
5637 0 24 0 105.76444061287512 20.038491838165253 12.061449569114703 0 0 0
5712 0 24 0 107.54881753982154 16.217258740558574 9.34940136844067 0 0 0
3401 0 24 0 110.6568425480163 18.72142934013372 12.719215232439558 0 -9 0
1886 1536 24 0 61.86300105829013 23.36142056776917 9.576204539617105 0 1 1
1594 1244 24 0 66.39895747133684 25.547259571927686 9.31085668493054 0 -1 0
1201 851 24 0 64.28278103753463 28.004502808050788 14.274256971025169 0 0 0
1520 1170 24 0 68.5397261455677 22.263811852543895 12.862337968653248 0 0 0
1684 1334 24 0 71.16002385337582 24.319338569914322 8.454810593568553 0 -1 0
927 577 24 0 69.17106249430331 28.408516559749685 11.965884368755239 0 -2 0
762 412 24 0 72.80049885563476 25.23209932578755 13.771247073830784 0 -2 0
1536 1186 24 0 76.71888025366827 25.21483999154299 10.000166264678349 0 -4 0
1683 1333 24 0 82.04567399256517 24.534448359768625 12.913568369666848 0 -4 0
905 555 24 0 82.06741074080985 28.44265572923969 9.663296814566136 0 -7 0
913 563 24 0 77.51092927374415 22.918601785720362 14.108827326054918 0 -2 0
863 513 24 0 86.8601187064987 22.767144168264384 13.34049456362018 0 -6 0
1635 1285 24 0 83.60787247137851 23.83419534402631 8.375755072984633 0 -6 0
5169 0 24 0 87.64138057490968 27.327270588292876 9.307711306248185 0 -2 0
2344 1994 24 0 89.20491261298808 22.709674757773342 9.037590816728493 0 -7 1
5100 0 24 0 84.60370656299851 28.796851807497326 14.117349441918392 0 -3 0
4044 0 24 0 96.68325459807146 28.047231252601136 9.172781821711528 0 -9 1
5622 0 24 0 97.40321949944872 22.032409474120673 8.579482351957529 0 0 0
1597 1247 24 0 97.02521417394198 24.698561898714235 13.540827184921655 0 -7 0
6105 0 24 0 102.37756058475186 23.34227362938737 8.048444965497998 0 0 0
3766 0 24 0 100.0220286323386 28.61024782107519 13.404279460496026 0 -9 0
3654 0 24 0 105.44776512231428 26.35094370338169 10.704334557081525 0 -9 0
4292 0 24 0 109.35069005703787 23.47334830682813 8.797263016795052 0 -9 0
5059 0 24 0 108.58195068760071 23.986118682097864 14.03126413480135 0 -4 0
1338 988 24 0 64.00218476630856 31.314656667445668 9.913628823707864 0 0 0
1779 1429 24 0 73.95533813679766 29.04998856514042 10.333772172529518 0 -3 0
1405 1055 24 0 68.9192060299742 29.644484643234055 7.30800112603097 0 0 0
1753 1403 24 0 72.24912616548053 34.43969311093562 9.219980077332885 0 -1 0
482 132 24 0 68.00332390675372 34.10046708347379 12.818155202486562 0 0 0
907 557 24 0 73.08682178717102 31.933907782913032 13.959079150150075 0 -2 0
795 445 24 0 78.18237179570848 29.139414599464256 12.296181713686508 0 -2 0
432 82 24 0 77.88973009474284 31.01463618582769 7.585573410523299 0 -1 0
1718 1368 24 0 77.17126590279098 34.446167406320065 11.765403081929906 0 -4 0
873 523 24 0 81.50493582239446 33.05289883776031 14.138783217360528 0 -4 0
1739 1389 24 0 82.27934838868556 33.510915576228314 8.718890588251927 0 -2 0
1070 720 24 0 87.0194729546276 33.425145694540326 12.259725895278471 0 -4 0
5136 0 24 0 89.79683205856459 32.08513882277647 8.024411705582787 0 -2 0
835 485 24 0 91.40561497406316 29.392776235991732 12.060466369806617 0 -6 0
1764 1414 24 0 94.75219006755106 32.74518574985774 8.854180493859436 0 -5 0
888 538 24 0 91.77117240398722 34.89794394108744 11.896159527720911 0 -6 0
1004 654 24 0 96.86090912763828 33.08372398485542 13.715633060971193 0 -7 0
1503 1153 24 0 100.0989398969697 32.216232549813114 9.578049077653905 0 -7 0
1791 1441 24 0 109.77098237233479 29.059738791575928 12.58113238242344 0 -5 0
5605 0 24 0 105.69482321442668 31.391475644847258 9.898944392884308 0 0 1
1524 1174 24 0 110.68009208611883 32.54422141774074 9.268420478892104 0 -9 0
3941 0 24 0 107.04233230075025 33.599794229087195 14.254268241941249 0 -9 0
926 576 24 0 116.02072621009175 31.714667352501355 10.406407618375173 0 -7 0
5400 0 24 0 112.81556591449745 33.13799012557737 14.010009584051733 0 0 0
1033 683 24 0 61.48672365243983 6.496113283957437 14.76970515037448 0 0 0
402 52 24 0 65.68093441890439 3.987643529839055 16.38187853584126 0 3 0
490 140 24 0 60.85579432302014 1.2356463920002008 16.479009487993395 0 3 0
1604 1254 24 0 63.821586951567056 7.134730052869057 19.90682953303419 0 0 0
1154 804 24 0 70.26742314070846 2.2155248859329855 14.78745590788645 0 1 0
812 462 24 0 72.51147278518621 4.703196972843986 19.77872217211793 0 -1 0
1327 977 24 0 73.73451796478253 6.0856978950463265 15.102153179878142 0 0 0
1487 1137 24 0 67.86527151887122 2.8334261682091277 21.08394375606845 0 0 0
1728 1378 24 0 76.67400833369965 2.804967891164024 18.00409246013946 0 -1 0
1685 1335 24 0 80.98576707546188 3.7546185268319934 19.789506166347447 0 -7 0
1778 1428 24 0 82.03306850847257 1.701373387580958 14.667871523810366 0 -6 0
1755 1405 24 0 78.98302681360454 6.623690255469616 15.071034188778908 0 -2 0
4387 0 24 0 85.61755917678242 4.2554986430886075 17.543371857412104 0 -8 0
800 450 24 0 84.80362251569657 0.2350221186602637 20.345621768841077 0 -2 0
963 613 24 0 89.54032693614614 6.3702071735267145 20.01523228512563 0 -7 0
3849 0 24 0 90.17489693902283 2.061043112856467 17.300133640909035 0 -8 0
1695 1345 24 0 93.30050007620363 5.808410411186498 16.15331616396937 0 -7 0
4422 0 24 0 96.39056074790841 1.4123263075585277 16.815953712426975 0 -8 0
6200 0 24 0 104.17732754714974 3.306677324584858 14.915243879596146 0 0 0
6039 0 24 0 102.07044177191095 1.7039447065433198 19.309268425831284 0 0 0
4446 0 24 0 99.06823140045525 7.173047254334793 15.276233671285912 0 -8 0
1586 1236 24 0 98.2954521446312 5.685032824944834 20.20323827367451 0 -7 0
6000 0 24 0 107.92619454013615 5.243120987853446 18.70285537683954 0 0 0
5388 0 24 0 113.242126867602 3.4692144751994056 17.582767532971495 0 0 0
691 341 24 0 61.43771032878813 11.135617339694575 17.407115794696466 0 2 0
474 124 24 0 66.65649399597494 11.400833750122384 19.178543815951265 0 1 0
921 571 24 0 69.25831132374746 7.6031202020139945 17.353304857809967 0 -1 0
1100 750 24 0 71.90434511089809 10.896909269948894 20.409709087688256 0 -2 0
1577 1227 24 0 79.15247242987377 12.197914554293074 15.476141443344643 0 -7 0
1580 1230 24 0 76.73781704131406 7.527430837140049 20.574483134839436 0 -6 0
4343 0 24 0 75.9114404112054 13.512493670001922 19.66867479165417 0 -7 0
4932 0 24 0 81.29825972519423 9.16083550357445 18.79257777452852 0 -5 0
5103 0 24 0 89.01716262817756 7.940503938610322 14.737237693655372 0 -3 0
1813 1463 24 0 87.84120705301478 13.993473366919662 16.73293004070431 0 -6 0
753 403 24 0 86.29500655134183 10.602733301741823 21.548903719608827 0 -7 0
1557 1207 24 0 93.71702623325801 10.748544073573047 14.521377580095807 0 -7 0
1796 1446 24 0 91.26124652304131 11.425574542798657 18.817355907087958 0 -8 0
803 453 24 0 97.6998693162932 10.438555838810506 19.122978524247273 0 -8 0
5307 0 24 0 103.71718377753125 8.606082374670365 16.34312940237414 0 0 0
6164 0 24 0 101.28924739054989 12.92476103113669 17.004475874506884 0 0 0
6156 0 24 0 104.97748156223425 14.16054375050857 19.806084061870337 0 0 0
6012 0 24 0 105.8247788180225 13.447336866590886 15.100829611859384 0 0 0
6249 0 24 0 109.9358478438001 10.070867859112736 16.444493924132868 0 0 0
6193 0 24 0 111.98812028896621 8.508667910170107 20.90442837203907 0 0 0
6014 0 24 0 106.55981492413854 9.510328724692867 21.414023476654737 0 0 0
799 449 24 0 66.24658269417782 16.221048000019245 18.867750920218427 0 0 0
959 609 24 0 66.3881161970265 20.849352422123335 18.18265332371279 0 -1 0
1556 1206 24 0 61.92759528421213 17.946985202814325 16.986484882740175 0 0 0
1219 869 24 0 61.71261438231458 14.661987218097803 21.574966526297956 0 1 0
823 473 24 0 74.96590480830311 15.781421957771483 15.036653633843718 0 -2 0
1714 1364 24 0 71.11027736707005 15.048917951764727 18.304015158637245 0 -1 0
1360 1010 24 0 73.02754965954573 20.458971606302875 14.769318500528412 0 0 0
1535 1185 24 0 70.64266596534542 20.354711519315217 19.44401484561281 0 -1 0
111 6 17 0 68.85491991475956 17.74295526508459 21.522416597836717 0 0 0
1484 1134 24 0 75.33819306893486 18.391670171410084 19.802549492724314 0 -2 0
953 603 24 0 79.32804659782917 16.93516176283381 16.896358911026933 0 -4 0
1574 1224 24 0 79.29801316291214 21.42765652316145 18.998671072373217 0 -4 0
796 446 24 0 83.35962767340504 14.868393859503202 18.660941125043053 0 -7 0
5104 0 24 0 82.7363242602131 20.0296645214133 15.099502289362322 0 -3 0
1528 1178 24 0 86.45565298194964 19.676146781035282 18.852623146643836 0 -3 0
999 649 24 0 92.34561966242724 16.378772101674663 18.02499312728641 0 -5 0
5050 0 24 0 95.40615396547364 20.06157814732141 16.122037329210205 0 -4 0
1024 674 24 0 91.35803925495952 20.387033797414194 21.053851988614166 0 -4 0
1093 743 24 0 96.5452793373542 18.91080069813606 20.86237568472622 0 -7 0
941 591 24 0 97.34570784912013 15.23301221084945 17.345399423828468 0 -7 0
977 627 24 0 99.93453058173901 20.581598269885227 17.472920114011544 0 -6 0
5097 0 24 0 105.00239448651244 18.3931993548085 16.633804469384884 0 -4 0
6142 0 24 0 109.96594557317235 15.232979148913802 18.052114487271307 0 0 0
5177 0 24 0 109.0840928308298 21.027046788752365 18.60694002169527 0 -2 0
1378 1028 24 0 63.567907227044806 25.25099636683745 18.45298587551515 0 0 0
1297 947 24 0 60.665849726457935 23.131188535894573 15.268597709114987 0 0 0
1198 848 24 0 69.29612197292649 25.966971130909407 17.347570588119087 0 0 0
875 525 24 0 74.68446809155098 23.874733782645432 19.027347483919577 0 -1 0
1605 1255 24 0 80.16682811173845 26.58804198166088 16.989726313685814 0 -4 0
1711 1361 24 0 75.51835036733077 28.67424412350759 16.659072913728046 0 0 0
1032 682 24 0 84.72838970692337 24.66536184706866 17.47730589281071 0 -4 0
1575 1225 24 0 88.8585361107052 27.990102447276744 17.048383829815723 0 -6 0
1502 1152 24 0 87.65760161462303 24.79008419614988 21.48172705150713 0 -6 0
1741 1391 24 0 91.38185184200167 23.75968764335079 14.744463355551453 0 -4 0
1628 1278 24 0 97.24654253309903 24.4900664033449 19.32241832687189 0 -3 0
5375 0 24 0 94.01828986925634 28.78639972349192 16.79326301296527 0 0 0
756 406 24 0 92.5718971335164 25.739221766793015 20.50392256149505 0 -4 0
1814 1464 24 0 102.07307060294333 26.83146192260949 19.779989430999787 0 -6 0
6198 0 24 0 103.73907036748356 23.388449891112405 14.994628762183172 0 0 0
3389 0 24 0 104.81962068440751 22.743217310774988 19.65415404399473 0 -9 0
6239 0 24 0 111.22756647803176 26.336667054578037 17.85701586734393 0 0 0
5985 0 24 0 106.79263508982073 28.018127204173695 20.512764424601514 0 0 0
5619 0 24 0 115.25000413316198 28.288013836183488 14.429493330835435 0 0 0
3734 0 24 0 116.76180374334542 25.738320620196614 18.25132186113267 0 -9 1
1236 886 24 0 62.81255229166548 32.7177986466952 15.052932477087154 0 0 0
594 244 24 0 61.925612549272536 30.486604048452246 19.519697162340286 0 0 0
726 376 24 0 66.1526902469266 34.57879337725288 18.956187046497586 0 0 0
1158 808 24 0 66.683230265547 29.15767904238222 20.7571014657423 0 0 0
1452 1102 24 0 71.70034205464607 30.198203821996714 20.006137870435627 0 0 0
1766 1416 24 0 67.69812806630833 30.865736306715576 16.49756996769044 0 -1 0
854 504 24 0 71.39440463341823 34.63069863032891 17.774804297425568 0 -1 0
1511 1161 24 0 76.56347616851892 34.897503042554554 17.021285041641363 0 -2 0
958 608 24 0 79.97644730218379 31.21576932929108 18.753747470328975 0 -2 0
886 536 24 0 84.7068723996945 29.134581034483677 19.41568479295105 0 -5 0
1815 1465 24 0 85.50591566982092 33.3763218693833 17.02835621540738 0 -1 0
3521 0 24 0 89.48878579960682 33.491143007362766 20.447846443054043 0 -7 0
1067 717 24 0 90.88180573042392 32.43367432366829 16.07017823596267 0 -6 0
1010 660 24 0 94.64427872616334 35.01558885364667 17.560689940133063 0 -8 0
1545 1195 24 0 94.13922200081413 30.677168959659628 21.577997552805254 0 -6 0
974 624 24 0 101.91858911524076 33.57843225758967 14.59777731678491 0 -7 0
5108 0 24 0 99.67716571799234 35.7655366767863 18.690444268190536 0 -4 0
986 636 24 0 98.22568950103592 30.46246540360032 18.273314794567614 0 -6 0
5150 0 24 0 103.4842974602248 32.68765810800262 19.386170722270023 0 -3 0
1620 1270 24 0 105.25630927617571 29.263429256028587 15.439274538494331 0 -6 0
4104 0 24 0 109.1976994774377 31.307278278569076 17.838047163586932 0 -9 0
4602 0 24 0 107.29558154309619 35.55458160745633 19.35555990751458 0 -9 0
1221 871 24 0 60.23644360149121 3.8714076039974534 28.18968870820389 0 3 0
452 102 24 0 62.42872393633957 2.8511570001904554 21.839106583756426 0 1 0
1237 887 24 0 64.19291692219001 5.927724981709418 25.402222479379425 0 3 0
1467 1117 24 0 65.47331281358204 0.07271845616941479 25.57428407633622 0 0 0
965 615 24 0 69.55762751882439 4.7817604881803835 25.77856230829362 0 -1 0
1626 1276 24 0 74.0757939469418 3.5886171921511263 27.976580091344854 0 0 0
1687 1337 24 0 73.17905024680763 7.021902841758424 24.32661144801964 0 -1 0
774 424 24 0 76.4944348984363 2.701725490662383 23.3519601256579 0 -1 0
2397 2047 24 0 81.58943500925179 2.824602281633522 24.501740955938878 0 -6 0
763 413 24 0 77.76824951302673 6.78562080241873 26.400127387024064 0 -2 0
1080 730 24 0 78.28972605678612 0.12873477691774685 27.184804654096332 0 -1 0
1588 1238 24 0 86.010709193385 4.939366905523145 22.762955268485936 0 -6 0
846 496 24 0 85.87549214961844 0.09570618770800582 25.159155875154603 0 -2 0
841 491 24 0 82.72367510950512 6.130402618601977 28.048717268273744 0 -7 0
1020 670 24 0 90.1354952576523 1.9385011179700462 22.644669781550782 0 -5 0
1089 739 24 0 94.42260347411774 3.1396282204435617 21.66576121392985 0 -6 0
4413 0 24 0 96.58542108849991 3.951099745595785 27.518746054847394 0 -8 0
5083 0 24 0 90.15668969285922 7.058071283478706 25.093178512386736 0 -3 0
768 418 24 0 90.13691907686044 2.506803657727203 27.84025484894556 0 -6 0
5149 0 24 0 103.18231849789164 6.0541280296694975 21.964135041308122 0 -2 0
5360 0 24 0 101.51249480970877 3.437232225056634 26.136936527565062 0 0 0
3494 0 24 0 104.68708482210259 0.13846501537059414 24.088094233675587 0 -8 0
1646 1296 24 0 98.44750023120123 0.08869039086617862 22.457705400202755 0 -7 0
5532 0 24 0 109.40577324426323 2.0544949057190514 22.26562878342893 0 1 0
5431 0 24 0 107.14547896119107 4.458386864806987 25.755763243819967 0 1 0
1248 898 24 0 62.76155592709323 10.330941994136753 23.739696667009387 0 4 0
1652 1302 24 0 65.77273614775348 12.005542798724269 28.73897921359206 0 0 0
1715 1365 24 0 60.01923204764672 13.292080108327838 26.60821751143412 0 0 0
1518 1168 24 0 67.58130985345582 13.494441308063436 23.806386889792943 0 0 0
2605 2255 24 0 70.40495567401865 9.521234225395244 27.628397875623232 0 0 0
1803 1453 24 0 68.41024762018577 7.559535056896887 22.283772294829475 0 0 0
1581 1231 24 0 80.2781003327553 12.74389390197713 22.262986312968888 0 -1 0
993 643 24 0 75.20755666438423 11.773479594890027 25.857887591102426 0 -2 0
1748 1398 24 0 81.90589329547687 7.674014189809463 23.497470516185427 0 -1 0
754 404 24 0 80.72208508637884 11.310990244158448 27.32951973456875 0 -7 0
813 463 24 0 85.57270333660047 10.484614142672424 26.47529413918149 0 -5 0
4935 0 24 0 92.17281574045835 12.168460111706368 24.964455865582817 0 -5 0
3396 0 24 0 94.3875403855402 8.265857483119435 22.21810596710565 0 -8 0
955 605 24 0 96.31733432172958 13.70516991978504 22.427225803631792 0 -7 0
2468 2118 24 0 98.85821517525507 7.785133860594324 25.935470115466234 0 -7 0
3534 0 24 0 101.28540216521841 10.890509740758938 22.81089776232503 0 -9 0
1670 1320 24 0 99.2680440440428 13.11498581351991 26.92758548714499 0 -7 0
6102 0 24 0 104.44997058722326 8.41088535758311 26.64004854323199 0 0 0
5812 0 24 0 104.92857968767304 13.059586809773345 25.168521247117667 0 0 0
6137 0 24 0 109.43845515178096 8.906737249374514 25.352848288847344 0 0 0
5295 0 24 0 110.23757394475113 13.001924396579968 22.46214625149053 0 0 0
1296 946 24 0 60.55898329840721 19.679130677602096 24.837673866715356 0 0 0
1325 975 24 0 64.89684803500454 18.96797320516575 22.45656069392918 0 0 0
1475 1125 24 0 64.13472311458555 16.336515323102876 26.283038387108324 0 0 0
127 1 4 0 64.56197255139041 20.676125242677596 28.209909793653207 0 0 0
124 1 14 0 64.97402903829422 21.48991388059605 28.248635813604913 0 0 0
1782 1432 24 0 70.83280467100131 14.992275560502609 28.13499314494465 0 0 0
1096 746 24 0 71.99269284985945 15.932018996132719 23.535693813115383 0 -6 0
1696 1346 24 0 68.60229866167427 19.58001438659858 25.790235132300293 0 -1 0
1444 1094 24 0 74.25897785306731 18.18065882584659 27.25550198223467 0 0 0
1423 1073 24 0 72.36601421729661 21.580075022457716 23.914857991755305 0 0 0
1561 1211 24 0 81.65096403303254 18.363379373530105 21.632652671110748 0 -4 0
1638 1288 24 0 77.57879607382993 16.490818144988665 23.868938941479104 0 -1 0
903 553 24 0 81.57691083631953 20.256938026480398 26.610008490707877 0 -3 0
820 470 24 0 88.14241802569082 15.314109760352263 21.630787991878556 0 -6 0
1485 1135 24 0 84.05452484511567 14.788490134904006 24.692036893646492 0 -3 0
5154 0 24 0 86.8660049231611 19.80743546853841 23.7084760515387 0 -2 0
1665 1315 24 0 89.9020450867817 16.191314268537063 28.11809774698097 0 -7 0
944 594 24 0 86.23227120999064 19.351641624131503 28.47396995582185 0 -1 0
1600 1250 24 0 92.58900925348254 16.82429552767 24.208740717090638 0 -4 0
3867 0 24 0 101.09809537773073 16.657510975800705 21.719711227282275 0 -9 0
5686 0 24 0 98.17226963300686 17.901745882180688 26.279419892425057 0 0 0
5582 0 24 0 103.1666027123315 17.791623427076143 26.08065418203379 0 0 0
6205 0 24 0 106.19502839542491 17.940684105549906 22.171895720001068 0 0 0
2327 1977 24 0 108.99669356231855 16.57678953148719 25.564942112018848 0 -7 0
6186 0 24 0 111.85964800733191 20.655614036302314 25.44436141803993 0 0 0
129 1 8 0 63.809811704014095 23.102251873465796 25.928653583488387 0 0 0
86 1 9 -1 62.5084415282241 26.918550471313218 22.81988736773608 0 0 0
126 1 3 0 64.00377188351614 23.338745900606792 25.828402061718894 0 0 0
128 1 14 0 62.66098366132865 23.879984173282455 22.997600090600223 0 0 0
130 1 11 0 63.01477949601283 26.854674832787463 22.669394258583477 0 0 0
131 1 3 0 65.3367353615772 28.18588293101734 25.491108346596555 0 0 0
132 1 8 0 62.97141410238507 28.72656513836783 23.56154649049762 0 0 0
1222 872 24 0 67.34066323502016 24.560314694101685 21.805918935153965 0 0 0
133 1 10 1 65.91549844298005 28.12341344885523 26.057013678807614 0 0 0
492 142 24 0 71.82730749315787 26.07472483075881 22.419120240713227 0 0 0
1257 907 24 0 68.56360516622331 24.81733994533161 27.233739356566332 0 0 0
2724 2374 24 0 73.60484471826712 26.015428909233915 26.933674030386424 0 0 0
1491 1141 24 0 77.21175999682197 21.873525337457774 23.439415716949963 0 -2 0
1800 1450 24 0 80.09914224622601 25.265148459677835 26.631521095807614 0 -4 0
1184 834 24 0 77.08167536303701 27.699560300329605 22.502228300719676 0 0 0
170 7 17 0 77.05030406378556 27.514985756865993 26.7261951427584 0 0 0
972 622 24 0 82.73884534704862 24.09801636117371 22.154455482618083 0 -2 0
1496 1146 24 0 85.18700595725065 23.939128244340473 26.54664871162078 0 -1 0
1611 1261 24 0 82.53070874574257 28.7637343053328 23.751758590529988 0 -1 0
940 590 24 0 89.73346296607139 28.020653318750387 28.736329804006484 0 -5 0
1565 1215 24 0 90.32251900466801 22.876248574846496 25.856348546222527 0 -7 0
1498 1148 24 0 94.96830750816164 22.715498965865102 24.16510978373439 0 -5 0
5082 0 24 0 92.82654605763304 27.07802255741556 25.234462951291693 0 -3 0
748 398 24 0 97.32558964896316 23.737230546803836 28.165185120624685 0 -7 0
6240 0 24 0 100.42414235138146 22.09235304361122 24.044769986848525 0 0 0
5635 0 24 0 97.94759262319076 27.27452023406554 23.42253927923799 0 0 0
3864 0 24 0 101.09050213275873 27.89449111829699 28.2609473071212 0 -9 0
850 500 24 0 104.15479948490243 26.379832748828 24.584248676037326 0 -7 0
5269 0 24 0 106.6335894288049 22.013246268131194 25.13825055740284 0 0 0
5999 0 24 0 108.85264396671649 27.66560891698579 25.53922081723885 0 0 0
4781 0 24 0 109.7873840244012 24.10673878653117 22.402865328446577 0 -9 0
6192 0 24 0 112.8146662838855 26.590687958516828 28.163523175718943 0 0 0
85 1 3 0 61.90472777630449 30.13125014980212 24.186945240180982 0 0 0
88 1 8 0 62.36020597370383 30.415000800386235 25.113059851814715 0 0 0
90 1 14 0 66.18038119757955 34.35658783920124 25.738542573557513 0 0 0
89 1 19 1 64.31206809367816 33.05078585444749 23.76227746521688 0 0 0
87 1 3 0 64.54102166791651 32.66378531226004 23.709825510227542 0 0 0
1295 945 24 0 63.19001790481815 32.59726689272 28.799403250729387 0 0 0
138 1 13 0 67.68286747511297 32.157213989910304 27.020917417276607 0 0 0
478 128 24 0 72.00987152219538 35.1505509606287 27.36106865601179 0 0 0
134 1 3 0 68.5687654547985 29.180945354169236 25.17011034477916 0 0 0
136 1 19 1 70.24712709486539 29.374000839272103 25.557724994599262 0 0 0
731 381 24 0 69.37541937591273 33.57422133787067 22.91302435942768 0 0 0
137 1 3 0 70.31037250614142 29.812386149950047 27.59450692026661 0 0 0
1244 894 24 0 74.46321387300877 30.987899285698404 24.88914399711464 0 0 0
135 1 8 0 68.44299986065204 31.80802013152202 26.909386193338467 0 0 0
91 1 8 0 68.1706984961695 33.175986385115245 28.131840554495913 0 0 0
160 1 3 0 76.67438654454008 35.443440313193136 27.588525534789078 0 0 0
164 1 8 0 76.64357449441529 34.80213512543856 27.022150015899765 0 0 0
1570 1220 24 0 79.07570388048231 32.643237554542175 23.669443873754343 0 -2 0
1300 950 24 0 79.63335002929836 30.690441809902797 28.431336144564032 0 0 0
918 568 24 0 82.47163202982229 34.82459459887927 26.51532525691332 0 -5 0
163 1 6 0 75.46809743144915 32.779060186216384 28.79799273782889 0 0 0
1659 1309 24 0 88.24592096747381 29.521129474343162 23.523829239643597 0 -8 0
1584 1234 24 0 84.00256141172322 33.68023467022427 21.786231527314737 0 -3 0
5239 0 24 0 87.59337492319386 34.89974636239394 24.713180764783317 0 -1 0
1747 1397 24 0 85.86747329074643 31.107965064294685 27.88851239299702 0 -5 0
1512 1162 24 0 92.4483436255041 32.206476512422086 25.75478137661922 0 -5 0
5069 0 24 0 97.34596531652709 31.011646095778264 26.235939522327627 0 -4 0
864 514 24 0 96.40999385965226 35.9729338517471 28.781092809268355 0 -7 0
5282 0 24 0 101.7277137340607 30.468347640172695 23.29323546650597 0 0 0
5248 0 24 0 97.78986128366336 34.58637195099047 23.058841316269593 0 -1 0
4242 0 24 0 101.71284942790254 34.1741614180867 27.013441851099685 0 -9 0
6020 0 24 0 104.89046768204823 30.693950961300093 28.426636225896306 0 0 0
861 511 24 0 111.74506357994792 29.192031287990247 21.809847570189895 0 -8 0
6047 0 24 0 107.25989460740561 32.05990157332666 23.065444151550174 0 0 0
6139 0 24 0 110.23361744761287 32.714541288451166 27.17375142988549 0 0 0
4631 0 24 0 112.72727476577326 34.65195696877744 22.24346596148228 0 -8 0
1913 1563 24 0 64.97634101406146 4.237413907199191 34.91365469335468 0 1 0
2829 2479 24 0 65.67121242234899 4.098209060390162 30.067387307528442 0 1 0
5212 0 24 0 70.41374058445042 5.9663139435308 31.35326827067841 0 -1 0
1569 1219 24 0 74.08797712002638 4.942348840387217 34.410990700668265 0 -1 0
1084 734 24 0 69.71833222139024 0.5821202583126893 29.065280749783998 0 -2 0
1533 1183 24 0 75.19535865799718 0.35451908805544224 32.070189808414334 0 -1 0
5396 0 24 0 79.07286138421154 3.4863357108060673 30.444728374397588 0 0 0
1617 1267 24 0 78.34649135393329 2.465298707917077 35.703343177782884 0 -1 0
1735 1385 24 0 86.54257126743475 6.616732926462017 35.11898532488578 0 -4 0
2284 1934 24 0 89.1909804092565 1.093284972700633 32.89291460920074 0 -7 0
4519 0 24 0 85.76131916146292 2.1709523096704895 29.568991757762106 0 -8 0
878 528 24 0 83.09069277351918 3.502596337031805 33.41618603307068 0 -2 0
998 648 24 0 87.41386809294966 6.864745782422502 29.736269084001037 0 -7 0
5096 0 24 0 93.71715267715044 2.4354554755874473 31.286732410829103 0 -3 0
1483 1133 24 0 91.18170150161983 5.849391051817571 34.538747303022845 0 -7 0
3398 0 24 0 96.2570885136159 6.063084164358323 33.42847597926676 0 -9 0
5193 0 24 0 103.3955536582883 1.7054442674270571 34.721408641046786 0 -1 0
5401 0 24 0 104.46193189980505 1.020226303302651 29.222922676585668 0 0 0
5543 0 24 0 100.00720690623396 3.723890679738659 31.2761734924703 0 0 0
5246 0 24 0 104.38870198629542 6.3650846053321795 31.11594972546962 0 0 0
5814 0 24 0 107.73115974521859 4.900353195281335 34.496144960770124 0 0 0
1128 778 24 0 60.53927485722447 13.153688425300944 31.892681274804122 0 0 0
3070 2720 24 0 64.91925911645178 10.90429160965636 33.54341131108512 0 0 0
1105 755 24 0 61.42667731396931 8.95224679550662 29.372823171411362 0 2 0
948 598 24 0 60.05399148228493 7.536691953546291 33.858752212447136 0 -1 0
1218 868 24 0 74.22262132678968 10.19218689342077 34.625887667650694 0 0 0
1372 1022 24 0 69.94385485247645 11.753587549223617 32.18068508056251 0 0 0
925 575 24 0 74.47477702528307 13.158204356781637 30.59734686470575 0 -5 0
2334 1984 24 0 75.1100907048626 7.887622453553635 30.128733497529062 0 -1 0
1771 1421 24 0 78.7980821158786 13.003387111727902 33.65862882321694 0 -1 0
1642 1292 24 0 80.26269447657005 8.343570414841944 31.880497419141907 0 -2 0
895 545 24 0 89.07713944461106 10.773267818336176 34.76633817547551 0 -5 0
746 396 24 0 84.81595833013402 10.709295614727735 32.29081725759653 0 -5 0
1517 1167 24 0 89.51492765891612 11.317780215405138 29.597959617074963 0 -6 0
1018 668 24 0 93.03715959577175 7.443977590871335 29.83357225655601 0 -7 0
779 429 24 0 93.78202307484723 11.765423168952006 33.99996099085843 0 -7 0
4518 0 24 0 94.00677718736824 13.874253327726855 29.204523186089123 0 -8 0
4096 0 24 0 98.38694898241535 9.50519287440393 31.060525420882957 0 -9 0
5653 0 24 0 104.00228598394865 11.832294966272555 33.41920141662524 0 0 0
4934 0 24 0 101.62848265726008 7.335846966794647 35.077295206576245 0 -5 0
771 421 24 0 107.50747434086108 11.011389819323165 29.590985107729445 0 -8 0
5229 0 24 0 109.25513908207526 10.468227454754738 34.94258869968811 0 -1 0
2854 2504 24 0 61.34589545697487 16.30093748161157 35.383814149046565 0 0 0
2645 2295 24 0 66.63586566693667 15.678919590278056 32.37232427222013 0 0 0
1173 823 24 0 62.402477269537144 18.080407667980776 30.294810115174027 0 0 0
121 1 3 0 67.23377398498089 20.583181719158194 30.601226043341782 0 0 0
120 1 11 0 65.28775184480772 20.10938562836566 33.469023138393496 0 0 0
119 1 4 0 65.79671598327879 20.09894327798356 33.23333882748271 0 0 0
125 1 8 0 67.04867025888554 20.567614686224815 30.672491384380766 0 0 0
118 1 3 0 62.6453996527556 20.99366880606026 34.14329747205005 0 0 0
117 1 5 0 63.37751220492864 19.954407627878435 35.267099200690964 0 0 0
1529 1179 24 0 74.41922503809874 15.59947252758741 35.8297527341647 0 -5 0
122 1 8 0 69.69519940925005 18.891211146896943 30.458217709199143 0 0 0
123 1 10 1 70.90637092284068 16.492396871258006 32.64210294441057 0 0 0
845 495 24 0 68.86595969119213 19.17993995614594 35.71960024362335 0 -2 0
2529 2179 24 0 75.78427546034362 18.195602317112577 32.366805526208964 0 -2 0
782 432 24 0 79.13604125670868 15.75732851626504 29.163987745731593 0 -2 0
1783 1433 24 0 80.54842316439573 17.813004846561384 33.87178564874359 0 -1 0
1187 837 24 0 77.64366820529762 21.373324846540086 29.215100660065954 0 0 0
976 626 24 0 84.23613318615219 14.485138240281316 35.43600173363089 0 -2 0
2961 2611 24 0 84.07099237333011 14.862253466007838 29.75562741866697 0 -1 0
1648 1298 24 0 88.93071590418835 15.234869302806537 32.931820801084775 0 -6 0
3160 2810 24 0 85.33983046741368 20.387233410689735 35.18776375822239 0 -6 0
896 546 24 0 90.01249341440071 20.090944668744662 31.392939759100738 0 -4 0
1579 1229 24 0 94.37755178951636 19.615801081526506 29.04822692960785 0 -6 0
5011 0 24 0 94.01781798497154 17.061866127998563 34.240386202899735 0 -4 0
4718 0 24 0 97.0156340006919 20.979408951839442 32.80630746846468 0 -8 0
3847 0 24 0 98.22297496432462 14.460652331144711 32.18301878683861 0 -9 0
5458 0 24 0 103.69125008027036 14.749618740848224 29.849848650901862 0 0 0
6128 0 24 0 103.18250398737783 17.85704694693639 35.576619417086285 0 0 0
6184 0 24 0 101.02116402579587 18.799336066696796 30.585488234775642 0 0 0
6026 0 24 0 108.45987941031855 19.84803806847456 34.37357119408164 0 0 0
5968 0 24 0 108.51897669090397 15.188669795958742 32.02169550543071 0 0 0
3961 0 24 0 106.11536224265815 19.62581864783151 29.922225429173125 0 -9 0
110 6 16 36 64.1222161461922 25.571116893810462 35.6186122250717 0 0 0
1408 1058 24 0 62.00894558969914 27.298650023548426 28.808789606190686 0 0 0
1309 959 24 0 60.63486857910789 22.647070069954285 29.446359291849298 0 0 0
1148 798 24 0 65.20968458003895 24.720140893342084 31.532015606879074 0 0 0
113 6 17 36 67.37103097783881 27.849676443006384 34.60739891764203 0 0 0
2975 2625 24 0 68.61346257537083 23.611076277313376 34.61456300677554 0 -1 0
1433 1083 24 0 72.93308759048718 22.452156355258357 30.598837751116573 0 0 0
1115 765 24 0 70.13619363249171 26.814075822122614 31.814163379233428 0 0 0
2596 2246 24 0 74.05804869860154 26.10371071623464 34.81128659333911 0 0 0
1655 1305 24 0 82.45381585174394 22.839050925940064 31.383474806608092 0 -1 0
2567 2217 24 0 78.28169383586128 22.678049105991775 34.33064438381714 0 0 0
2601 2251 24 0 77.13274652151178 26.701344400189175 30.482328229605095 0 0 0
2759 2409 24 0 82.54740609190299 26.43024899903441 34.98708703756077 0 0 0
2383 2033 24 0 82.82266774580707 27.70766883375127 29.859832804834777 0 -1 0
2914 2564 24 0 87.18920408078371 24.301815301914505 31.313592487102884 0 -1 0
3373 0 24 0 95.79453450341016 25.97824775590046 35.649191617014395 0 -7 0
1811 1461 24 0 91.12063149783522 25.347994557147388 34.364223161695136 0 -4 0
1610 1260 24 0 92.92682408969219 24.233896343639323 30.12610234012131 0 -4 0
1658 1308 24 0 95.39405392195333 28.790145975118914 29.97139250768607 0 -7 0
5084 0 24 0 102.56272669477079 23.11189925361212 28.845707160524626 0 -4 0
5508 0 24 0 104.7527404557031 27.87605309846032 32.41139344284207 0 0 0
1544 1194 24 0 99.80720275817853 26.910059741961863 32.61809618491827 0 -5 0
5289 0 24 0 104.24507127524942 22.5907844882621 33.897396374330334 0 0 0
6199 0 24 0 110.10206906950987 25.510585480925695 35.33846087157634 0 0 0
5053 0 24 0 108.8178547716088 23.724304978526973 29.94685170448801 0 -4 0
900 550 24 0 60.195757313533186 35.876748042515224 31.049089331034644 0 0 0
211 1 3 0 62.94168123694037 35.21264552533637 35.139137704971176 0 0 0
1352 1002 24 0 66.41937990803619 29.300142971630102 30.512629094829876 0 0 0
1228 878 24 0 63.24028997136214 29.94285133362061 33.824525413589306 0 0 0
94 1 3 0 66.37215316184403 33.80921670099321 32.25337189300346 0 0 0
97 1 2 0 65.17794187670701 34.064621654227864 32.84953220180548 0 0 0
210 1 8 0 64.02536503578456 34.784142717578696 33.07559673805425 0 0 0
92 1 6 0 67.33856861571131 33.76941111147325 29.08218111295986 0 0 0
140 1 4 0 73.8808516522399 30.482986636260435 30.34283873707547 0 0 0
95 1 4 0 69.34338150067786 32.317868742435316 32.99678050324197 0 0 0
96 1 3 0 67.68736963765274 31.711900705587112 34.585387430727394 0 0 0
144 1 4 0 69.48324049098387 31.26729371319134 34.372518595304015 0 0 0
141 1 3 0 71.97531627953077 30.584519801693627 33.92638284844727 0 0 0
139 1 3 0 70.62843491924305 31.48923526036531 30.607673669711165 0 0 0
93 1 8 0 69.670316516889 32.435646758693736 30.248186152704317 0 0 0
142 1 4 0 71.46745709437167 31.40699747033248 30.64580779657512 0 0 0
166 1 11 0 73.12676705665774 30.292043863129773 33.264922784896896 0 0 0
525 175 24 0 74.14826186589632 35.07449203002914 32.909976068942775 0 0 0
165 1 3 0 74.08296139937632 30.495238151069813 30.371350638766135 0 0 0
146 1 5 0 74.49691441557705 30.196158582781585 35.963227691869186 0 0 0
168 1 15 36 77.91145700528058 34.3705594543046 33.10540465329414 0 0 0
154 1 3 0 78.65824869875746 33.00142674416398 35.16856915020322 0 0 0
167 1 3 0 76.18070387962631 30.915815069269314 32.768319688146285 0 0 0
155 1 11 0 79.60414159020704 30.761335140771344 33.336693448708886 0 0 0
157 1 9 -1 78.10206608515678 33.089194109144906 34.334916638399704 0 0 0
3210 2860 24 0 86.49728854222234 29.522245363734612 32.942604841111 0 -1 0
1532 1182 24 0 88.51001920826224 35.151986595860436 33.81073954915497 0 -6 0
1552 1202 24 0 82.80950307604098 33.547342431498734 31.320290346885994 0 -1 0
5031 0 24 0 93.49860889152102 35.45802336670719 34.99005304703831 0 -4 0
1079 729 24 0 96.33297029800039 31.352731062271605 35.08198313231039 0 -2 0
2427 2077 24 0 91.29565600070387 30.39187234939448 35.344284435390605 0 -7 0
819 469 24 0 91.97643283750563 32.58578992427126 30.843607196712544 0 -7 0
5266 0 24 0 99.44497236118384 35.402968362096296 34.61799553652124 0 -1 0
1805 1455 24 0 101.54808412176084 30.597330932909685 35.98755987229759 0 -5 0
4508 0 24 0 103.7777532385916 33.88212151272885 33.28600284606255 0 -8 0
5367 0 24 0 99.0670653629646 31.989716611751664 30.950449695325567 0 0 0
5703 0 24 0 109.37651349182245 34.39871265269454 33.89461806803836 0 0 0
4331 0 24 0 109.77943593934755 29.571316543154197 31.7706190390486 0 -9 0
2346 1996 24 0 65.83402389675891 4.110416755611975 40.127151903711656 0 -1 0
3182 2832 24 0 61.64069207113886 3.3143041942588027 42.82538955996593 0 0 0
2411 2061 24 0 70.25898419456863 5.752875671390335 36.589142320527166 0 -1 0
978 628 24 0 74.67101642579745 4.104710513103424 39.83168386455223 0 -1 0
3014 2664 24 0 71.07662857612057 2.386271031029621 42.288202306990186 0 -1 0
3092 2742 24 0 69.14773186975928 7.169547875429487 41.448659475334175 0 0 0
3001 2651 24 0 72.02305957257266 0.5939661979849536 36.039389970824416 0 -1 0
1738 1388 24 0 78.82329202567539 5.283280133576844 42.45999968405542 0 0 0
917 567 24 0 78.19579161104063 7.060492612388909 37.807085926918035 0 -2 0
1707 1357 24 0 82.518089474347 5.539256780705619 38.926561982858544 0 -4 0
2401 2051 24 0 86.01663279003625 1.966032665729525 37.26506265184598 0 -4 0
3074 2724 24 0 86.0629028671448 6.705404488980832 43.08585699178896 0 -5 0
3205 2855 24 0 85.16232490484765 1.559235091606496 42.12469714681319 0 -4 0
5358 0 24 0 89.7520260540084 5.357238306103752 39.32616508343098 0 0 0
3021 2671 24 0 94.86879394375548 4.804592370597486 41.08421014608347 0 -5 0
3148 2798 24 0 90.52378283549896 0.5819637039105386 39.77976645844419 0 -7 0
3649 0 24 0 94.0270710096186 2.1096882960302863 36.433423845736215 0 -8 0
5620 0 24 0 99.27288516937168 3.4086460480251666 36.643747183413446 0 0 0
3958 0 24 0 104.01756238924891 5.178394978087872 39.317636577268104 0 -8 0
6132 0 24 0 102.25033814638525 0.11614186561684532 39.13256968084198 0 0 0
5786 0 24 0 99.87500327747445 3.5126498826508246 41.70505229649624 0 0 0
856 506 24 0 107.23111505481567 1.3071209666097796 38.42690144908261 0 -8 0
1717 1367 24 0 109.61724008253908 3.881400021591527 42.63405590651651 0 -7 0
1479 1129 24 0 61.610870826872116 7.3515535925301645 38.756668796004845 0 0 0
2663 2313 24 0 62.67127024209892 12.521198733328934 38.26956210348706 0 0 0
2521 2171 24 0 66.16940873887036 8.762390366003777 37.87753983967909 0 -1 0
2480 2130 24 0 68.66902648274703 13.029541776062889 36.947966975781945 0 -1 0
3072 2722 24 0 72.34107852778085 10.170889896706907 39.21022346528831 0 -1 0
3115 2765 24 0 68.7127239576455 12.614650336229323 42.166386593692145 0 -1 0
3178 2828 24 0 77.13977970885712 12.270483041318988 38.34596476307022 0 -4 0
952 602 24 0 82.01330943532828 10.411412015136678 37.36763710030107 0 -1 0
3195 2845 24 0 75.28739329050498 11.54051887119444 42.87122212252319 0 -1 0
2995 2645 24 0 87.19157364928341 9.627909990635828 39.260971063626855 0 -5 0
2204 1854 24 0 83.72028519687112 13.16638056785541 41.35314986837505 0 -5 0
2377 2027 24 0 93.15275149195229 9.30018869468709 38.72682427254927 0 -7 0
5134 0 24 0 90.17698826522057 13.63309614945719 38.88949889725736 0 -3 0
935 585 24 0 95.9873754747677 13.60689568961931 37.726836830722945 0 -7 0
3167 2817 24 0 98.35851164426234 14.156970145887554 42.18874787881556 0 -5 0
4952 0 24 0 98.54844824049545 9.20910640991085 38.56158105452798 0 -5 0
967 617 24 0 101.21880421191722 13.456425606791326 37.65130676602017 0 -7 0
4450 0 24 0 103.6037989325789 12.421202823683766 42.46489823888051 0 -8 0
4966 0 24 0 105.05742621296373 9.810838233747349 38.67730372360134 0 -5 0
5175 0 24 0 109.81259752443421 13.297326265965202 42.25739350867236 0 -2 0
2679 2329 24 0 65.76713871457015 16.524759494438044 38.81463813435812 0 0 0
116 1 3 0 61.507195374776416 21.180223869429895 37.16304907919751 0 0 0
2573 2223 24 0 64.40063895099182 20.967129132604562 42.15192965300986 0 0 0
2431 2081 24 0 60.85475132111333 17.870200361360737 41.39640200799783 0 -1 0
2366 2016 24 0 64.1669322188388 14.555709770093031 43.029945937591116 0 0 0
3174 2824 24 0 71.53420574858563 16.11076535782815 40.18277328795026 0 0 0
1406 1056 24 0 69.0144341202884 21.084870464139286 40.438683250837656 0 0 0
2658 2308 24 0 73.55401767593588 21.140158452417026 42.34694689698407 0 0 0
2922 2572 24 0 74.09769406513227 21.194573945504775 36.22330790764481 0 -1 0
1185 835 24 0 77.18846338199678 18.186912811834983 39.114198488396276 0 0 0
1560 1210 24 0 81.86943504797398 17.547754711395996 39.608409021814985 0 -4 0
834 484 24 0 87.49851165427357 17.519673752897912 38.00495678968229 0 -4 0
3145 2795 24 0 84.41292190511719 20.13029824406361 42.987798438683235 0 -1 0
3249 2899 24 0 88.05971871509674 16.25470120656065 42.60242687655104 0 -5 0
3005 2655 24 0 90.00906453024812 20.993195686433154 40.79713276830991 0 -2 0
745 395 24 0 93.90494015378097 17.661789854213097 40.4934415625757 0 -2 0
5163 0 24 0 92.05583191357869 21.102029336620586 36.34274317331875 0 -2 0
2286 1936 24 0 97.63919666309818 18.214046220099018 36.82042372622804 0 -6 0
2452 2102 24 0 101.36624432452409 17.90715891839045 40.31719374276059 0 -7 0
6252 0 24 0 105.49513072200135 16.693765477358763 42.545645862977025 0 0 0
4481 0 24 0 106.5442653268327 14.45525322916767 37.09168220211755 0 -9 0
114 6 3 0 64.64737735836657 22.060052019712742 37.345902879328456 0 0 0
109 1 15 36 63.52247940236329 27.106192395728367 38.49637180375121 0 0 0
106 5 3 0 63.1647634278556 26.9863060533403 38.47751297157367 0 0 0
102 1 3 0 65.42229900338613 25.29533575036805 39.90597357663364 0 0 0
36 1 13 0 61.47382638379579 23.44420221366698 40.14451817591526 0 0 0
115 6 12 -1 66.38967582812369 25.411941274236668 39.099349898528146 0 0 0
108 1 3 0 64.20097804144457 25.13987183148002 36.31725990075706 0 0 0
100 1 8 0 66.99413662315578 25.05950546916617 41.68590513699097 0 0 0
103 1 15 0 68.38668753983744 26.30981610671315 38.92177542969198 0 0 0
99 1 3 0 67.92437734753807 26.331206160684417 38.42426379615465 0 0 0
2812 2462 24 0 72.55614102952038 25.36220921317658 39.86376421648927 0 0 0
104 5 16 0 69.84511390733475 27.83121498874585 36.5371466085312 0 0 0
2606 2256 24 0 70.41168217187919 28.373350614514482 42.93817756036418 0 0 0
3068 2718 24 0 77.49325547203685 24.13290145441188 40.22007841566327 0 0 0
2622 2272 24 0 78.49718075288415 28.039660915893247 37.00039397235492 0 0 0
2370 2020 24 0 82.08774418167377 22.590091217532514 39.04955209444344 0 -2 0
149 1 3 0 78.5046703819466 28.74984013987748 42.02112828467732 0 0 0
852 502 24 0 87.37490639282113 23.779087857255018 37.80782843993497 0 -4 0
2721 2371 24 0 82.83756535515974 27.910129686104508 40.91756674003635 0 0 0
824 474 24 0 87.68978140953051 28.64985730949023 37.629215561660274 0 -2 0
2340 1990 24 0 87.95360352827917 24.751323375591745 42.77431450370247 0 -4 0
2195 1845 24 0 95.95946684722837 22.253927224499158 39.88236268508809 0 -7 0
2360 2010 24 0 91.93531085484018 26.26815675957962 39.14784595617418 0 -1 0
4277 0 24 0 101.17053542620589 28.610403690266427 41.070926471617646 0 -8 0
5148 0 24 0 104.12182039940556 26.429793585589092 37.48812434904236 0 -3 0
3018 2668 24 0 100.19764137730449 22.658090134075355 37.0776943885465 0 -6 0
5984 0 24 0 105.06389299189394 22.142917880499425 39.04724679049233 0 0 0
6136 0 24 0 110.21265405896368 24.909729940426484 40.3435200669757 0 0 0
4488 0 24 0 105.15113129679726 26.442307508192595 43.09715279433341 0 -8 0
2715 2365 24 0 60.274461278976986 28.892577843239497 42.33554706490165 0 0 0
112 6 17 36 66.706982989732 29.199296051855185 37.12633550772225 0 0 0
107 5 11 0 63.40367338625237 30.03838602600696 38.614548191345975 0 0 0
213 1 11 0 64.15716095243313 33.137551352562504 38.04620829938228 0 0 0
214 1 11 0 64.57077804758335 34.285336580689126 41.38170938236824 0 0 0
98 1 11 0 66.79659855565257 29.694640533740927 37.50336891490433 0 0 0
2162 1812 24 0 65.82629693064514 29.476720215709065 42.574831418334924 0 0 0
220 1 8 0 66.22668201936973 35.94574574022147 41.158765885252315 0 0 0
105 5 20 0 69.99211790111235 28.864482928790935 39.02399028846176 0 0 0
2877 2527 24 0 72.60924146644206 34.372501667874594 37.368562268606524 0 0 0
2788 2438 24 0 68.73044806074991 32.66305730831344 40.01243024298137 0 0 0
143 1 3 0 71.70288438132285 29.87229492434046 37.13816162299419 0 0 0
2600 2250 24 0 73.0005214619272 33.70668268404321 42.289837908765065 0 0 0
145 1 3 0 74.1679657458094 29.639155204114736 39.22637589240442 0 0 0
174 7 8 0 74.64780353302174 30.14778601908158 37.510543783657134 0 0 0
148 1 5 0 74.2359748309297 29.64148573734832 39.518998475983196 0 0 0
1919 1569 24 0 80.35659828947966 35.522127490700264 42.46108975675305 0 0 0
147 1 3 0 75.42252694193046 28.840385116640558 41.85416728059372 0 0 0
150 1 21 0 78.73305221807269 31.80575876602573 39.82576638680656 0 0 0
151 1 14 0 79.50929339190259 31.51350584580045 40.16574975770909 0 0 0
176 1 8 0 78.79431557720271 30.912393706718706 40.85005044776504 0 0 0
152 1 8 0 80.06065776214555 34.35528521827337 38.38494061027754 0 0 0
175 1 3 0 77.2733448789205 33.82914069309504 38.77558624206928 0 0 0
153 1 11 0 80.56777153834251 33.510093660763644 37.88057261308851 0 0 0
173 7 6 0 76.17929042071283 32.1965148652102 36.13836812786631 0 0 0
2955 2605 24 0 84.07695415721554 33.16745612203418 40.81651700924054 0 -3 0
1763 1413 24 0 88.27967594771104 33.325341660037445 38.57521287539952 0 -5 0
4856 0 24 0 88.36182086686298 29.410592271163853 42.18686962620188 0 -7 0
2628 2278 24 0 83.96709900796884 31.808062180154096 36.10032531152807 0 0 0
2290 1940 24 0 96.51435866475751 29.506581348141147 39.59991387946034 0 -5 0
5047 0 24 0 92.52145691315832 31.870328686361365 40.685977380216684 0 -4 0
4938 0 24 0 99.57546409081084 33.28973129773019 39.75137404965743 0 -5 0
4978 0 24 0 104.36134607088003 34.526909976091744 38.440172065706506 0 -5 0
4298 0 24 0 112.10230947335567 29.881813444394467 37.209702144458014 0 -9 0
3046 2696 24 0 109.06856874986305 34.58560500959638 38.56312140746993 0 -7 0
2950 2600 24 0 108.40683571445199 30.150471859231573 41.46821282022268 0 -7 0
3661 0 24 0 106.76636876132348 30.67063805567075 36.51677319342432 0 -9 0
5487 0 24 0 113.66675836014309 32.87530104230512 40.97936590948675 0 0 0
1664 1314 24 0 66.77705782100901 2.783282050276134 44.93236419537328 0 0 0
2499 2149 24 0 62.97265733981981 4.795022430790092 48.51930276442304 0 -2 0
3261 2911 24 0 71.6582120573051 3.704863834383148 47.94205281239194 0 -1 0
1613 1263 24 0 74.05727451606407 6.327354145936819 43.88603900727506 0 -4 0
3075 2725 24 0 67.70433305855599 1.6564980307164259 50.17172006162599 0 -1 0
2964 2614 24 0 77.07559377829868 2.082645066618112 46.424054923961506 0 -1 0
2434 2084 24 0 81.37461169483852 4.411073110180105 49.688872489178664 0 -2 0
3111 2761 24 0 82.96039102051859 0.15198704506966684 47.252304377596175 0 -4 0
3184 2834 24 0 85.80490106104844 4.034816340195691 47.317734040033045 0 -4 0
2948 2598 24 0 90.36238332229924 3.6397740170797728 44.34070182433981 0 -6 0
3194 2844 24 0 94.54507404931019 4.74076646683283 46.63337095620571 0 -4 0
2319 1969 24 0 90.1010051532436 3.565330015941162 49.89177560670213 0 -7 0
2954 2604 24 0 94.02057551449043 0.00404892311672711 43.374383750100186 0 -5 0
3366 0 24 0 101.82005887940801 4.880240536222785 48.26285573049811 0 -8 0
6241 0 24 0 104.57419497947309 3.055255407739302 44.353277453248346 0 0 0
3537 0 24 0 99.33011158950885 0.8716792509408069 46.493571572997034 0 -8 0
5497 0 24 0 106.37320865155694 5.511705265578261 49.58902616771177 0 0 0
6002 0 24 0 107.94929843794147 0.3070894109595936 47.209033065561904 0 0 0
5604 0 24 0 110.91205584836594 5.936176002511447 47.29979103493091 0 0 0
4451 0 24 0 114.70805660178797 2.6488036178877703 46.60427771823952 0 -8 0
2365 2015 24 0 64.23468349044536 7.931069722514302 43.96119295035855 0 -1 0
2414 2064 24 0 67.35128019476691 7.5666068670408935 48.09267049931842 0 -2 0
2323 1973 24 0 66.74677619066091 12.553659062167084 46.98279393951181 0 -1 0
2476 2126 24 0 60.317893602397184 10.173549941049348 46.91118675127682 0 -2 0
3220 2870 24 0 71.76263259222924 10.11327982994578 47.88988231402881 0 -1 0
2525 2175 24 0 80.35976412006399 9.806675553072278 43.702066416525675 0 -3 0
3101 2751 24 0 77.79260623290715 7.542027634299472 47.8024662054797 0 -4 0
3034 2684 24 0 76.44982978915391 13.950729470358747 48.26897592580364 0 -4 0
2302 1952 24 0 82.42196670794684 13.949184178688194 46.562784478792096 0 -5 0
5184 0 24 0 88.6128634785011 7.86482578450737 48.38893837109322 0 -1 0
3130 2780 24 0 83.55159168831885 8.481318912198196 47.465518439578624 0 -1 0
2550 2200 24 0 87.36211317905075 11.28972859691135 44.48353826657715 0 -4 0
5477 0 24 0 96.87287259560907 8.31690687371135 43.71398193302174 0 0 0
821 471 24 0 91.50244441681942 8.36650814985289 43.209886353139 0 -7 0
2493 2143 24 0 90.32807361195401 13.569565611805837 49.378574829659094 0 -7 0
2232 1882 24 0 92.25236219199694 13.811781354837807 43.4455574375902 0 -7 0
4651 0 24 0 93.63498326934182 10.558145130531424 47.24742706789708 0 -6 0
4052 0 24 0 102.34969804219226 7.71540322778481 43.84673487321282 0 -8 0
5719 0 24 0 97.5937827743778 7.865900319599802 48.964403791381095 0 0 0
2205 1855 24 0 98.83483589316043 12.105843339069489 46.62283443774878 0 -4 0
6217 0 24 0 103.63812508397116 10.52058039137711 48.164033377315256 0 0 0
3369 0 24 0 107.26661187707273 8.491672569245996 44.09975207490629 0 -9 0
6171 0 24 0 108.23350951818306 10.70053446359147 49.72325255531805 0 0 0
5794 0 24 0 106.81909262181797 13.617167793598714 45.88825059978835 0 0 0
2828 2478 24 0 61.107814080113044 15.467906875588506 47.36822208254749 0 0 0
2933 2583 24 0 65.72064719691002 18.96162295684359 47.47628920615167 0 0 0
3200 2850 24 0 60.25313625157251 19.98160504984601 46.55374723666173 0 0 0
2228 1878 24 0 71.9271328712837 15.148955466224246 45.0803028726797 0 -1 0
2780 2430 24 0 68.24658172667951 17.674676359723104 43.520702680039236 0 1 0
2791 2441 24 0 71.48304062030672 19.904703172060213 46.86391256122012 0 0 0
2939 2589 24 0 71.39671572535416 14.628563369573444 49.97557213089396 0 -1 0
3175 2825 24 0 79.00211750410683 14.981349152302494 43.47882862298972 0 -1 0
3040 2690 24 0 79.34013705147272 20.71397184766488 43.85877378110213 0 -1 0
2960 2610 24 0 75.57482975633248 17.894272692697022 45.12704793816635 0 -1 0
3207 2857 24 0 80.24429239595176 17.91233113655001 48.770740040273935 0 -1 0
2689 2339 24 0 75.45070564080713 19.069959297627044 50.04419165076044 0 0 0
2520 2170 24 0 86.70604568574656 15.92049908383822 48.03378899516844 0 -5 0
2501 2151 24 0 83.95801873429801 21.27572186758706 47.665878096335774 0 -3 0
2296 1946 24 0 90.34523920403568 19.12621223081574 50.04707244463875 0 -7 0
2270 1920 24 0 95.20176665175721 15.51928728994358 46.48313270648389 0 -5 0
4231 0 24 0 91.26307635406332 18.773615920314725 45.23424749403978 0 -7 0
5494 0 24 0 95.85665622512738 19.881067883072006 48.397190336780916 0 0 0
5795 0 24 0 97.09826963683247 19.395816046468934 43.604330522871706 0 0 0
2405 2055 24 0 100.92615855440273 16.77082189585177 45.586494436949366 0 -6 0
1088 738 24 0 100.66758909261135 21.520765494781976 48.923139375239835 0 -4 0
5886 0 24 0 104.96650869937454 19.412980690219864 47.50812356180284 0 0 0
3774 0 24 0 99.29516736705045 16.934682249067265 50.058862946990516 0 -7 0
6130 0 24 0 111.27511779797534 15.030766296596141 49.60896734485768 0 0 -1
5377 0 24 0 113.98985117430277 18.708997598585633 47.625957220146525 0 0 0
2676 2326 24 0 63.78309067779566 25.40231278557742 44.60270848360487 0 0 0
3222 2872 24 0 62.665704683463964 23.61805281035957 49.230324738107065 0 0 0
2737 2387 24 0 68.15758680116693 28.21784291132734 47.60133488979447 0 0 0
101 1 10 1 69.74571127590474 23.95206207991835 44.165426065298725 0 0 0
2867 2517 24 0 72.4163563458361 24.376784594965414 48.15760758270369 0 0 0
2668 2318 24 0 81.51407356947047 25.080906143648157 44.76889602897138 0 0 0
2821 2471 24 0 76.24308624453164 24.249302195346786 45.00519592787567 0 0 0
1958 1608 24 0 79.30447203315796 27.86675450653699 47.905492557259755 0 0 0
177 1 19 1 78.43050429077127 28.236649467693915 43.260657132862924 0 0 0
3208 2858 24 0 79.93989726672423 23.036189699529142 50.00294065037706 0 -3 0
2454 2104 24 0 88.61941075318488 22.610537697044638 46.77643574433226 0 -5 0
2487 2137 24 0 85.22298969993236 27.73790858137587 45.938848564903246 0 -4 0
3063 2713 24 0 89.09111940585056 28.00973709655335 49.54203078144989 0 -4 0
1744 1394 24 0 93.23369145131375 23.09896423418078 43.90809631060371 0 -1 0
3116 2766 24 0 92.99381847786813 27.741294437906863 43.555364858120754 0 -5 0
2442 2092 24 0 92.29440826048 24.122358019321087 49.612466887803286 0 -6 0
4636 0 24 0 96.15039064098427 27.866438532255877 47.51963977020966 0 -8 0
5145 0 24 0 102.14388174672939 21.77540017221984 43.393968180141684 0 -3 0
3237 2887 24 0 98.1346895059208 25.241831597516928 43.84052723593208 0 -5 0
3532 0 24 0 102.13778216770473 28.574761026103964 47.24778059864717 0 -9 0
5636 0 24 0 107.20108468296995 21.743109387548593 43.59760163244406 0 0 0
6138 0 24 0 109.99788793599811 22.411430987479715 47.81869925700672 0 0 0
3218 2868 24 0 105.72574486758404 24.790276054425476 48.400640792975885 0 -7 0
4985 0 24 0 109.84065787385592 26.709661610098102 45.56820265786862 0 -5 0
2438 2088 24 0 112.98712719454123 22.8953924852845 44.01630044724207 0 -8 0
5884 0 24 0 117.39591711142252 28.007774485075533 46.53850572621988 0 0 0
4961 0 24 0 113.43682966301834 26.957172446869237 49.80030047739665 0 -5 0
2644 2294 24 0 62.4229145256302 28.843308560019572 47.85335405133701 0 0 0
2882 2532 24 0 62.45955406806546 32.74661412839429 44.773963503471926 0 0 0
215 1 11 0 65.81991080343315 35.50633255987034 44.29119785332895 0 0 0
2551 2201 24 0 63.53624509121027 34.67703877218534 49.440483850951075 0 0 0
2075 1725 24 0 70.84464603919226 32.93541771631475 46.64837856874882 0 0 0
2726 2376 24 0 73.88227530894513 28.96886829253567 47.00390713652155 0 0 0
2722 2372 24 0 77.04394293720428 32.77893436512772 45.2169706317931 0 0 0
3042 2692 24 0 81.53004106180771 31.371027689753614 44.94058808783407 0 -1 0
2200 1850 24 0 80.39375233050649 35.22036491830475 47.57805786112231 0 -2 0
2264 1914 24 0 86.34061456085831 32.667694570497595 46.47942020596472 0 -4 0
2263 1913 24 0 89.77186346063571 34.97042379906587 43.388586573106494 0 -4 0
3217 2867 24 0 83.41140153635786 30.02581751936221 49.78620079317115 0 -4 0
2238 1888 24 0 91.70684950174964 31.53617081156193 46.421310310389224 0 -6 0
5793 0 24 0 97.1978773970761 32.20923126314507 48.8193462928678 0 0 0
5102 0 24 0 103.6704161804937 32.144517769526296 43.29172713818792 0 -4 0
3171 2821 24 0 98.15730123366731 30.771730857995863 44.10685438115171 0 -5 0
3965 0 24 0 101.76848474380877 34.4410603470206 46.96427182915172 0 -8 0
3859 0 24 0 109.89209941335308 35.483121691510306 43.25041511822366 0 -8 0
2303 1953 24 0 106.5890874766621 31.607558179620042 47.35808232234603 0 -7 0
2305 1955 24 0 111.6987936102135 31.16084756611201 45.92325824688534 0 -5 0
5352 0 24 0 115.24425857257825 31.943287627136613 49.49063847503115 0 0 0
2924 2574 24 0 62.97673128355823 2.5158821555079864 53.23133948942737 0 0 0
3000 2650 24 0 60.13604061337942 7.014653456389437 52.82152713478883 0 0 0
2533 2183 24 0 63.8492240604003 6.71914668846007 56.78834662535362 0 -1 0
2519 2169 24 0 66.15937439959548 6.319982381852543 52.36887170546232 0 -1 0
2222 1872 24 0 67.02630534515175 2.0430957956508653 55.97646524178372 0 -2 0
2379 2029 24 0 70.79249417801623 5.273625236277533 53.661577328672514 0 -2 0
3149 2799 24 0 75.88793311717264 4.907160814427587 51.59147094106051 0 -1 0
2502 2152 24 0 81.81051404903964 2.0566373407155156 53.664566849229374 0 -2 0
3048 2698 24 0 77.18494128760625 3.450365931977792 56.62488105319936 0 -1 0
2314 1964 24 0 85.27371963841829 6.4785213419282 52.10376631107111 0 -5 0
3230 2880 24 0 85.91515069648106 1.1717983458910763 51.412140822966975 0 -4 0
4944 0 24 0 86.14640118025476 1.475348909193876 56.42954501511476 0 -5 0
2268 1918 24 0 90.19776647132505 4.2886073827937325 55.47256682608263 0 -4 0
4928 0 24 0 96.59155353937092 2.9209265127540247 51.48786866652554 0 -5 0
3972 0 24 0 97.24458876712467 2.174801965782764 56.67096424928566 0 -8 0
2549 2199 24 0 92.51249456009505 6.871939726446374 51.94839889227802 0 -7 0
2928 2578 24 0 101.23202582133766 3.29677755918938 53.57477416429331 0 -8 0
4559 0 24 0 97.71995901284113 7.001888298228177 55.47342892778714 0 -7 0
5778 0 24 0 105.44866406003149 5.992301981588476 54.809414476250886 0 0 0
6098 0 24 0 108.01289547368133 1.347831229283486 51.93228791464175 0 0 0
6201 0 24 0 109.55104317698704 3.9781126979501433 56.977077171484204 0 0 0
5943 0 24 0 112.72885707128522 3.667085857794801 51.369397361796025 0 1 0
1957 1607 24 0 61.1578558948898 10.790078532729858 57.08436320507039 0 1 0
2293 1943 24 0 63.82305199085411 10.74066806690973 51.18726187570387 0 -1 0
2354 2004 24 0 66.71789679276823 12.724214007144939 55.90195251478332 0 0 0
2165 1815 24 0 74.58794074368852 7.779212015818587 56.547072862074224 0 -1 0
2445 2095 24 0 69.01054423767728 10.39729144716663 52.252036385471804 0 -1 0
2930 2580 24 0 72.61793011499064 12.885444217176799 54.752868112166524 0 -1 0
2262 1912 24 0 68.70287585787725 8.070976002477952 57.425487898928324 0 -1 0
2300 1950 24 0 80.04458311632048 7.203410479227807 54.17620672220727 0 -2 0
2199 1849 24 0 75.2597729599698 9.780810141210939 52.053439637452854 0 -1 0
2936 2586 24 0 78.75705941061716 12.164353373774253 55.961562372414335 0 -1 0
2500 2150 24 0 80.33999919330184 12.222384854104469 51.38568999481199 0 -3 0
2308 1958 24 0 86.24876937606095 11.479187544273218 51.358160142816864 0 -6 0
2949 2599 24 0 83.96064195176544 10.633679524284481 56.381524933557266 0 -2 0
3020 2670 24 0 88.61102822838188 9.170115008243746 54.643955055758575 0 -5 0
5099 0 24 0 92.62332107715115 11.647017574849174 53.3620336154286 0 -3 0
2970 2620 24 0 97.2226764988608 11.822894544749497 51.68135471367541 0 -7 0
3023 2673 24 0 92.93525040240155 8.285847228559094 57.064684688080874 0 -6 0
2526 2176 24 0 101.35148349520004 8.901012084729008 52.43998172500995 0 -8 0
5639 0 24 0 100.73631043907795 13.461445787605099 54.772550589230676 0 0 0
5644 0 24 0 105.26180879941549 11.006189978623809 55.57190419661613 0 1 0
5153 0 24 0 110.59046130776352 8.321769652332776 54.19658640905697 0 -2 0
6245 0 24 0 109.99721012562482 13.555613509067925 56.15508880130325 0 0 0
5164 0 24 0 113.98836443468336 11.900071420066407 53.3704647257163 0 -2 0
3062 2712 24 0 66.26236666656696 15.035779699847428 51.84798060591046 0 -1 0
2592 2242 24 0 62.801379701082745 15.040249554328994 55.454326604791014 0 0 0
2277 1927 24 0 61.90995324975095 18.56260504227888 51.06203585006076 0 -1 0
2967 2617 24 0 65.90017772808596 19.867807308696715 54.262332140080275 0 -1 0
2938 2588 24 0 70.62420198488005 19.03765237613727 51.637788400249114 0 -1 0
3142 2792 24 0 70.36913252985622 17.390590896981468 56.66803025138359 0 -1 0
2488 2138 24 0 76.05584644505545 15.208366814749276 53.00798894615746 0 -1 0
3188 2838 24 0 79.05002872693326 19.66435881205264 53.778211054014456 0 -4 0
3007 2657 24 0 82.06416617354425 15.616105978244198 55.4053876564234 0 -3 0
3064 2714 24 0 84.41450333827343 18.13887138057592 51.52310805599165 0 -3 0
5043 0 24 0 88.68836247377563 16.08889170787365 53.76947442034842 0 -4 0
5342 0 24 0 94.38757521046101 16.1349120328387 51.815975374553496 0 0 0
2996 2646 24 0 92.5613670396295 20.096967236124986 54.52101021691174 0 -6 0
1634 1284 24 0 95.57112999414997 14.532122344204309 56.63754450759001 0 -4 0
3960 0 24 0 103.81903780513369 14.460499354368165 50.874893459049375 0 -8 0
4582 0 24 0 97.53719624696681 19.950648626094527 53.91592662060705 0 -8 0
2457 2107 24 0 102.50081814999952 18.565841428173666 53.688696138482804 0 -6 0
5678 0 24 0 104.69141171683123 15.85573241439869 57.28560690786061 0 0 0
5798 0 24 0 107.67595630559646 17.02925013662659 52.95844990939763 0 0 0
3065 2715 24 0 111.72997080552346 21.09135730739746 56.787442239756054 0 -7 0
6172 0 24 0 113.69466000051983 17.211919404484878 54.0813111025505 0 0 0
2647 2297 24 0 67.49315193034685 23.059375008361346 50.45007234815191 0 0 0
3045 2695 24 0 61.323273402604606 28.34509731939467 56.985360609539484 0 -1 0
2762 2412 24 0 62.073453965949895 23.950410023603634 54.16669094498457 0 0 0
2422 2072 24 0 65.4233685158659 27.318900894719665 52.13002690392989 0 -1 0
1939 1589 24 0 65.22010747529937 25.57321102267626 57.47626931876081 0 0 0
2697 2347 24 0 71.06450868179118 27.49148500723858 51.72906417278548 0 0 0
2203 1853 24 0 74.03731920453426 22.231525341595304 53.92245817886155 0 -2 0
3227 2877 24 0 69.58317072862059 23.921676009303834 54.56220219938661 0 -1 0
2566 2216 24 0 73.38565317831865 26.38460756534176 56.53582341571334 0 0 0
3030 2680 24 0 80.68106823530648 27.387025290020645 53.149455952352184 0 -3 0
2609 2259 24 0 76.25147847054839 27.24740759353109 51.412519870442075 0 0 0
2557 2207 24 0 78.62205608137786 24.91587130401821 56.700032860733195 0 0 0
3181 2831 24 0 83.07973250316019 23.055026740879295 55.51835468169912 0 -4 0
5160 0 24 0 87.43369344302836 21.80884836131856 53.60954755858137 0 -2 0
2625 2275 24 0 84.56554432988236 24.923715901490315 50.840370160135656 0 0 0
2400 2050 24 0 87.69954882416279 28.7593128773609 55.92070599401954 0 -7 0
4615 0 24 0 90.77694848022381 25.40389017922009 54.05396946485914 0 -6 0
2301 1951 24 0 95.89762200784371 26.889184034190833 55.941126343322004 0 -4 0
3118 2768 24 0 97.31007992426098 24.55967959834539 51.43342509634731 0 -3 0
5407 0 24 0 101.02079046041594 22.87920658819554 56.59733018233467 0 0 0
2528 2178 24 0 102.87982286823325 26.387807976994853 53.0896666044428 0 -8 0
2419 2069 24 0 107.97664939457165 22.98755633287165 53.1270620112738 0 -5 0
5105 0 24 0 106.98313395944353 28.732120424346494 51.06436000698023 0 -3 0
5911 0 24 0 111.0301614757877 26.98962833849635 55.298682221725635 0 0 0
5746 0 24 0 116.49335323464335 22.188244234361893 53.413057140501664 0 0 0
3089 2739 24 0 65.46040823111991 30.59749346664621 56.41618036881829 0 0 0
3083 2733 24 0 62.401774170832056 30.87969163019009 52.42094444266579 0 0 0
2355 2005 24 0 64.86298933967277 34.91991650326594 54.00254833096469 0 0 0
1890 1540 24 0 74.40086749769699 32.69275655281138 51.024402930665644 0 0 0
3050 2700 24 0 68.07024040673454 31.808009741845787 51.5543487914683 0 0 0
2235 1885 24 0 72.24942535103155 31.50628149244003 55.43969889139825 0 -1 0
3067 2717 24 0 68.68578815200388 34.32978560658868 57.53625749715139 0 0 0
3239 2889 24 0 75.81415872303262 35.41246120323459 55.63096073176739 0 -1 0
2920 2570 24 0 80.34688359805575 33.18999369200067 52.70038583273885 0 -1 0
2217 1867 24 0 77.49394001667932 29.609789819202796 56.01952429173462 0 -2 0
2391 2041 24 0 84.34980520205443 35.02907949611242 50.900816438284686 0 -4 0
3037 2687 24 0 88.64354408397867 32.21098728552022 51.521251854446575 0 -3 0
3098 2748 24 0 84.78762161240667 32.59254660633117 55.64914959967239 0 -5 0
2356 2006 24 0 88.81900613548488 35.76838545977567 54.99189290460172 0 -4 0
2292 1942 24 0 92.82690821644519 35.34998052607726 51.69013981916612 0 -4 0
3228 2878 24 0 93.69564708017276 30.067900144201722 52.11321315231484 0 -4 0
2941 2591 24 0 92.91462717072578 32.62447883705309 56.26033638358935 0 -3 0
2328 1978 24 0 96.90883279210075 33.697077584876254 54.24969926808283 0 -5 0
5041 0 24 0 99.00795842325311 29.667100546435286 53.17904226476918 0 -4 0
2426 2076 24 0 103.26034631467209 32.14705422709635 50.99480430762441 0 -7 0
2316 1966 24 0 103.78437401562583 33.72026912061182 57.22514544143971 0 -7 0
3940 0 24 0 105.24601085448276 29.024666508422563 56.48274858547804 0 -9 0
3256 2906 24 0 109.49153300174756 33.47791514067511 50.41098738595453 0 -7 0
2242 1892 24 0 108.22962625573626 32.485612062421254 54.99942792285228 0 -7 0
6134 0 24 0 113.10632669184933 32.26381333634505 54.667686951426106 0 0 0
3033 2683 24 0 66.30068260940841 2.279404423800512 60.95775181279839 0 0 0
3139 2789 24 0 62.56724751315619 6.545574904361611 62.160112567955586 0 0 0
2146 1796 24 0 61.38110495979855 1.2542916599496317 60.52488064652286 0 1 0
2428 2078 24 0 70.8647761093958 3.5899592712057187 58.60716553116931 0 -2 0
2532 2182 24 0 70.8921818495304 2.6074183700136984 64.23314726642792 0 -2 0
3095 2745 24 0 75.05123273748391 0.7776133757427524 61.35426426993991 0 -1 0
3216 2866 24 0 79.24006412986263 4.465467540250475 63.41209056501233 0 -3 0
2345 1995 24 0 80.30691000751285 0.13290919762530568 58.50856713016999 0 -2 0
2256 1906 24 0 84.30860175294322 5.47631257762771 58.2559264093091 0 -6 0
747 397 24 0 83.99195524942844 2.3030119697113327 62.06974295600434 0 -4 -1
2349 1999 24 0 89.34314853793641 5.712910991148899 60.10434718913573 0 -5 0
2953 2603 24 0 89.1511516805907 0.6819480712587378 62.34578814766481 0 -7 0
4037 0 24 0 93.34781516190284 1.4578646743254893 59.5865534116744 0 -8 0
4599 0 24 0 93.5375905009592 5.79774606400801 63.586508757338926 0 -8 0
5479 0 24 0 101.56320909225853 0.08244893174558675 59.135554787042565 0 0 0
3341 0 24 0 101.88422056945537 5.07925851867876 58.52171067108178 0 -8 0
4239 0 24 0 97.58537978983665 3.763792612911014 61.386036830089296 0 -7 0
4041 0 24 0 102.18033891669367 2.412011578219983 63.75718183394119 0 -9 0
5971 0 24 0 106.04718312670573 2.207694008077439 60.319625608627604 0 1 0
5466 0 24 0 105.5808986118359 5.998872467343775 63.486835345367965 0 0 0
6056 0 24 0 110.19954007172329 5.870376293545552 63.155965623998235 0 0 0
5405 0 24 0 111.46266110051045 1.4324827174526482 60.96222380111566 0 0 0
3152 2802 24 0 64.37429396441328 10.784451197255777 60.77563875191343 0 -1 0
2085 1735 24 0 67.29912249945532 7.337379828858363 63.538401151275316 0 1 0
3097 2747 24 0 72.3006625064025 7.535482353048159 61.28348357618243 0 -1 0
2980 2630 24 0 70.34144836463734 12.354436103031071 59.67643005211071 0 -1 0
2475 2125 24 0 73.47399883205975 13.538671457632399 63.38290321289893 0 -2 0
2386 2036 24 0 68.20650179447063 12.638571016155016 64.26036372368888 0 -2 0
2945 2595 24 0 79.23488330227548 7.876018010110847 59.34996761597537 0 -1 0
2403 2053 24 0 75.81789677321758 11.114456103232664 59.5638013280839 0 -2 0
2424 2074 24 0 81.36300797446229 12.6709438173978 59.96830861402774 0 -4 0
2983 2633 24 0 76.76274519572573 9.14329219585638 64.1950617126901 0 -1 0
2460 2110 24 0 81.69397287295156 8.91210805692215 63.42444438217871 0 -6 0
3060 2710 24 0 86.23639251455118 9.867050670181435 60.74950770926133 0 -4 0
5218 0 24 0 91.13266525393888 10.647307036279278 62.94020866539679 0 -1 -1
2212 1862 24 0 95.57589593624206 10.28818871347921 60.9345368930644 0 -8 0
3019 2669 24 0 91.28127202172625 13.247365742314678 58.41324508873764 0 -5 0
3624 0 24 0 100.23400681776643 7.71747958480063 62.68350852933319 0 -9 0
5183 0 24 0 101.09961716873481 9.744982050401688 57.6502611230041 0 -2 0
4671 0 24 0 103.91033392999432 12.69230906108175 63.21741546993708 0 -8 0
3099 2749 24 0 99.40155561105023 13.917156377865192 61.425346625610246 0 -8 0
6092 0 24 0 105.59205293197556 8.43106600672354 59.62149232195062 0 0 0
5881 0 24 0 108.95193010296212 12.08286228969752 62.009047042284344 0 0 0
3406 0 24 0 113.12665057085923 9.134000921357737 59.542098775866435 0 -9 0
2536 2186 24 0 60.916318633017745 20.122603017868144 63.86195883995387 0 0 0
3193 2843 24 0 60.057192863250435 14.550847887464284 60.249130380089824 0 0 0
3159 2809 24 0 63.13118278861459 14.999805416805454 64.0979251846587 0 0 0
2444 2094 24 0 65.51531193725752 15.828223719364678 59.48130042644937 0 -1 0
3196 2846 24 0 65.87348053905166 19.332262609560672 62.76110443213499 0 -1 0
2818 2468 24 0 63.03628286325628 20.502056368311813 58.73595358553022 0 1 0
3015 2665 24 0 70.135075324651 17.158821269111215 62.21177120768653 0 -2 0
2593 2243 24 0 73.42006189291196 20.961406562385843 58.845700949507275 0 0 0
3076 2726 24 0 75.57097711411262 15.812045526256338 58.28188218765289 0 -1 0
3125 2775 24 0 75.2371253839158 19.172025572162436 63.06982922864496 0 -4 0
3197 2847 24 0 79.59116506857242 18.469657464855484 59.82172535297774 0 -1 0
3131 2781 24 0 78.43953531885799 15.197483480979084 63.46194053703487 0 -2 0
2463 2113 24 0 86.51079411133196 14.85660784511224 58.49687993430986 0 -4 0
2321 1971 24 0 83.93749642435468 15.35960211358757 63.54561401474718 0 -4 0
3032 2682 24 0 84.95397642861906 19.339096110829594 59.11458142473853 0 -6 0
2236 1886 24 0 89.0100056091058 15.752573999484872 62.602799010397284 0 -8 0
2271 1921 24 0 86.67184281918952 20.300767889910738 63.36105912149713 0 -7 0
2331 1981 24 0 90.22430124248899 19.050875002808848 58.63622556993238 0 -7 0
2509 2159 24 0 93.75939228961033 15.036483199536262 62.900499197986726 0 -7 0
4541 0 24 0 95.42735329370497 19.15025472440564 59.16061858209836 0 -8 0
6015 0 24 0 91.60711367398736 19.970617506782844 63.518793183896825 0 0 0
5568 0 24 0 98.02657000988295 18.55141994119446 64.11532008371336 0 0 0
5353 0 24 0 99.58578955693915 17.55615166476023 57.84825622788008 0 0 0
3651 0 24 0 103.30480858934314 17.756575708836742 62.12945307104466 0 -9 0
5098 0 24 0 100.47571285906432 21.279973252893342 60.94476431772565 0 -4 0
3650 0 24 0 106.36015734948842 21.21715720686905 57.7861285949827 0 -7 0
5765 0 24 0 108.92730293640888 17.52190573683986 60.39003853005367 0 0 0
5785 0 24 0 113.31276855291942 18.140253623247098 63.28018943227063 0 0 0
3242 2892 24 0 60.49848254594635 27.525705210451637 62.749672180533594 0 0 0
2515 2165 24 0 64.10363900508402 24.018972832637697 62.97933548537885 0 -1 0
3123 2773 24 0 68.49479634884594 21.65295201178747 59.04478862758269 0 0 0
2309 1959 24 0 69.29767464715958 28.346645795191154 58.8480860551403 0 -1 0
2372 2022 24 0 74.38028663267583 25.17861315309118 61.48732330370114 0 -1 0
2441 2091 24 0 69.35847144049308 26.92310005754694 63.40350464179209 0 -1 0
3120 2770 24 0 81.61225906079875 23.012077277560135 61.32434122321159 0 -5 0
5215 0 24 0 87.3589633152203 23.675143581329227 58.15161260932461 0 -1 0
5132 0 24 0 86.3907133988359 27.66989037973595 61.4558968848785 0 -3 0
2218 1868 24 0 89.82283957366771 24.427762495592678 62.636593838410384 0 -7 0
3017 2667 24 0 92.76005128405411 23.43626036285009 58.536483004080615 0 -6 0
2283 1933 24 0 96.29254714864832 23.0581026883961 62.53935138865717 0 -8 0
2522 2172 24 0 95.82047749596234 28.108155130724946 62.32592569574154 0 -6 0
2540 2190 24 0 91.21381333348675 28.009180211750785 58.95039461031569 0 -7 0
3737 0 24 0 99.15829798098991 26.276954719872457 59.38741572426325 0 -8 0
5034 0 24 0 103.94903098388345 25.41123363343542 59.76392065052213 0 -4 0
5524 0 24 0 101.47540681178523 26.443087259869053 64.4964090926958 0 0 0
6163 0 24 0 105.2370413644118 22.286204704255432 63.834165842950725 0 0 0
6222 0 24 0 110.43534853861782 22.953179943930206 61.39278358284132 0 0 0
2959 2609 24 0 108.27194545253364 27.54665277908178 61.42495861229931 0 -6 0
6203 0 24 0 114.0819369966744 27.012482523653407 59.70625500116795 0 0 0
2384 2034 24 0 64.86046678890817 29.475860925311153 61.59637394988995 0 -1 0
2496 2146 24 0 61.52797769353739 32.75713215823838 59.41875827216428 0 0 0
2926 2576 24 0 67.31190270502124 34.513649630535944 62.52534172686825 0 0 0
3117 2767 24 0 71.78419155372607 31.977522848325897 61.25467379321382 0 -1 0
2482 2132 24 0 74.26499191953008 29.122023174963747 64.61274308126758 0 -4 0
2991 2641 24 0 82.45465288879572 28.877084573282964 58.00579032036714 0 -4 0
879 529 24 0 78.65533408282091 28.972323243916414 61.544400650138925 0 -2 -1
2966 2616 24 0 77.15830722075255 33.113141342127804 59.73732502427418 0 0 0
2497 2147 24 0 81.52673708475123 35.689090336968164 57.78016538603142 0 -4 0
1059 709 24 0 79.07381334951337 33.39004274220852 64.60200336674617 0 -4 -1
2498 2148 24 0 83.53176740705688 32.37517914770091 61.4285961695242 0 -4 0
2362 2012 24 0 88.39421156010913 32.44076465276009 59.9839354778655 0 -4 0
2433 2083 24 0 93.65932923995636 32.931081749417366 61.33702875685089 0 -6 0
3011 2661 24 0 90.7084729073938 29.06985111296619 63.37506126391132 0 -6 0
3177 2827 24 0 98.07354797878779 31.051081701002623 57.936663468345 0 -5 0
3618 0 24 0 98.45336709479179 32.880968384272755 62.772394818307376 0 -8 0
2287 1937 24 0 102.5642305875798 30.082581439002706 60.713302439169034 0 -7 0
5713 0 24 0 102.76903347808135 34.351414410833904 64.68726066126484 0 0 0
5781 0 24 0 111.5419742358298 30.86772851257117 59.11602969597598 0 0 0
5488 0 24 0 106.86328183727773 32.7531093384547 60.87085824095417 0 0 0
3121 2771 24 0 110.30659674877764 31.871907756061677 63.82208865712618 0 -7 0
6045 0 24 0 114.55939225757828 34.800950915901346 63.59402825332267 0 0 0
2687 2337 24 0 60.96617933947506 1.4795112932826067 69.62356446025814 0 3 0
1844 1494 24 0 66.43858454871159 1.8228719110162162 70.59176436138198 0 0 0
2030 1680 24 0 64.29032197204255 5.527442844666783 68.05003090635952 0 1 0
2318 1968 24 0 62.3908874535424 2.591197705794555 64.9697176290546 0 0 0
2486 2136 24 0 70.82618994299816 0.7384742078794883 68.57133691888617 0 0 0
740 390 24 0 69.99614416499175 5.448814401874148 68.6916367682087 0 -1 -1
992 642 24 0 74.80867643087934 5.04627685931995 66.16152625882351 0 -2 -1
2408 2058 24 0 78.97286321788756 2.1872502929829953 70.87907896012052 0 -4 0
3113 2763 24 0 75.56438063289343 6.830533430808005 70.93125344276316 0 -1 0
3004 2654 24 0 79.73269994288705 6.708820286309431 67.97317161034164 0 -3 0
2250 1900 24 0 76.29192554241683 0.23629440467571944 66.49118946767746 0 -1 0
3876 0 24 0 88.59826161398523 6.300884904026931 71.60971081575889 0 -9 0
3035 2685 24 0 88.08271625920013 2.859193617474023 66.74600852910694 0 -7 0
938 588 24 0 82.9681289722284 3.1477154707794854 67.41820501741438 0 -4 -1
826 476 24 0 89.40129440414479 0.8158073734546213 71.80132126222473 0 -7 -1
4221 0 24 0 94.25086201291525 0.9208982118833265 65.04503737508081 0 -9 -1
2990 2640 24 0 92.83733882713948 3.518491238296615 69.02776144811897 0 -7 0
2534 2184 24 0 96.92629796453458 6.310032011500204 70.85088146428642 0 -7 0
4725 0 24 0 97.93810021461915 4.66827473046189 66.41781979353662 0 -8 0
4485 0 24 0 99.61403660867869 2.3557108387918473 70.37196634902517 0 -9 -1
4957 0 24 0 103.67446354533435 5.073568257411338 68.56428996019542 0 -5 -1
5220 0 24 0 107.65519111132038 2.059926705092705 65.5126693601419 0 -1 0
6216 0 24 0 108.52775319809477 6.646319107768554 68.40505993807483 0 0 0
4683 0 24 0 113.34983949433507 5.9595049684625545 70.11525627257114 0 -9 -1
5908 0 24 0 113.13618282997905 0.9438442531541181 65.85291849166634 0 1 0
2385 2035 24 0 63.21177061008545 10.220708048870257 65.83408479225939 0 0 0
408 58 24 0 65.05221970212506 13.851692263335478 68.6666066652028 0 1 -1
3053 2703 24 0 62.773692214517816 9.981928947463826 71.10500719088117 0 -1 0
2269 1919 24 0 67.44529950757403 9.75361085357855 68.13859801721158 0 -2 0
2406 2056 24 0 72.24340283895509 10.554700053989768 71.34846448319196 0 -1 0
957 607 24 0 71.63205025910598 9.351782197099842 66.19570836587785 0 -4 -1
929 579 24 0 71.02233492265498 14.028049161999244 68.0678309772551 0 0 -1
3061 2711 24 0 81.49532496633105 11.687853496325433 67.56834119303197 0 -4 0
1001 651 24 0 75.9923841240559 11.606599614486361 68.40195798176501 0 -7 -1
2343 1993 24 0 89.07161164663353 10.973165322581558 71.3168160481991 0 -4 0
2350 2000 24 0 88.45307294752668 7.57706556785798 65.6276835163747 0 -4 0
851 501 24 0 84.82066108689295 8.0308251254559 69.15679807951693 0 -5 -1
971 621 24 0 86.48663971449322 13.38906044924271 67.61432291015306 0 -6 -1
5481 0 24 0 92.52075003665092 8.264840983734029 68.54334934983538 0 0 0
2464 2114 24 0 95.80308608924291 10.867003372908608 66.0185509661635 0 -8 0
1555 1205 24 0 91.3095267811052 14.014879075091473 67.6476755328002 0 -7 -1
3862 0 24 0 97.7141208726664 11.838120534982174 70.86390744098605 0 -8 0
5942 0 24 0 101.1319663974783 10.474536194130119 67.60863118288938 0 0 0
5815 0 24 0 102.59407077201026 13.085750343536441 71.61441578413306 0 0 0
6129 0 24 0 106.82371042140355 11.738515132667228 67.06506057794843 0 0 -1
5642 0 24 0 112.04535423315384 10.087967398488058 67.07044049868482 0 0 0
3041 2691 24 0 65.716157851782 17.69848414365019 71.54738129443083 0 -1 0
1869 1519 24 0 62.45895300258373 18.5029585605023 68.13752689371474 0 1 0
3253 2903 24 0 67.89034713134792 17.51735744408105 67.03890398389288 0 -3 0
3187 2837 24 0 72.99654020798971 18.53584701663223 68.11050267137361 0 -1 0
2929 2579 24 0 81.16912903833352 19.281224074103303 64.99495578503358 0 -7 0
5046 0 24 0 81.83791963056024 16.652841119680073 69.307373760021 0 -3 0
2535 2185 24 0 77.22105450708719 16.186207232312817 68.18597796983278 0 -5 0
3110 2760 24 0 82.32586094733969 21.539996781248494 69.86808610105507 0 -7 0
2214 1864 24 0 86.2623920113272 18.294345083991693 67.6727546630702 0 -4 0
1542 1192 24 0 87.9438225435494 15.943914111145705 71.70159679236589 0 -4 -1
1660 1310 24 0 91.86040664603918 19.266905770855253 68.84886446872261 0 -7 -1
4837 0 24 0 95.82926852032367 16.710597836146718 68.37730406639535 0 -9 0
3834 0 24 0 101.42841166254004 15.922357611056386 66.62264881162847 0 -8 -1
4926 0 24 0 102.27998703452964 20.757913097388453 67.6755521475693 0 -5 -1
6244 0 24 0 100.29518106402936 18.11778269358057 71.25230941931873 0 0 0
5664 0 24 0 107.26217989882346 16.240212237770866 64.93344542555214 0 0 0
2310 1960 24 0 110.4957353354537 20.130166758222973 71.92300289897537 0 -8 0
6133 0 24 0 111.26238756164521 16.218969019276365 67.8854848210366 0 0 0
3741 0 24 0 105.35444321311257 17.211206378072127 70.14332964712821 0 -9 0
5537 0 24 0 109.97097790770978 21.250444139680777 66.49278384625345 0 0 0
1150 800 24 0 60.30198435448802 22.49945597038619 70.74097929576247 0 1 -1
1639 1289 24 0 63.674482139403146 26.792197244865843 67.3726657510586 0 -1 -1
2888 2538 24 0 65.88448617552689 22.40574118972047 67.57333751475905 0 1 0
2813 2463 24 0 70.5796599733979 21.7291943245324 64.97639162546054 0 0 0
3136 2786 24 0 69.47591591434913 22.067662122455303 70.7239772070827 0 -1 0
1608 1258 24 0 68.49204315927922 26.835951377875507 68.53999717568341 0 -1 -1
2415 2065 24 0 73.09697827711169 24.888832277108563 68.04041294593365 0 -4 0
2997 2647 24 0 80.54202436771305 26.09495144766007 71.48092698362674 0 -1 0
2201 1851 24 0 76.98844149049721 21.713863340528373 68.90872501166973 0 -2 0
2402 2052 24 0 77.85409677605767 25.024602866161207 65.24375330292314 0 -6 0
1693 1343 24 0 81.59238636572069 28.596635038522066 65.91295528893765 0 -6 -1
4965 0 24 0 83.56543442454138 24.047980151514775 65.868165728963 0 -4 0
2273 1923 24 0 85.31026964395798 25.345239575831602 71.59978274655235 0 -7 0
2259 1909 24 0 88.50638279750774 23.39953588235574 67.7300798168647 0 -6 0
5157 0 24 0 89.9626663993408 28.762811685370725 71.57031919832116 0 -2 -1
3506 0 24 0 96.51674691922943 22.050101529945486 67.82502708953027 0 -8 0
3168 2818 24 0 92.98301954435271 25.674732229790923 66.36731306667848 0 -6 0
1734 1384 24 0 96.66839814102501 27.24790300887795 69.22658403799895 0 -6 -1
4237 0 24 0 101.56397650380833 25.91221753494395 69.79398990842762 0 -9 -1
6243 0 24 0 111.71584032236899 27.27861472750208 64.90110600391554 0 0 -1
6236 0 24 0 106.3627043342135 22.75490010214945 70.86553706880376 0 0 -1
6013 0 24 0 111.4056445493003 24.99950129461674 70.44146511140701 0 0 -1
6202 0 24 0 107.35749682881178 25.65111935407816 66.7294865211506 0 0 0
5910 0 24 0 115.79121710631884 23.74620206454663 65.82270111121032 0 0 0
1651 1301 24 0 66.34847609395969 35.63806897648828 67.59380233403449 0 0 -1
3163 2813 24 0 61.678244580216585 32.289466236797495 64.8038046437627 0 0 0
2884 2534 24 0 61.27562842828814 34.32490017860417 70.19524297243657 0 1 0
3009 2659 24 0 65.38964528862353 31.45725126613496 69.27152501957337 0 0 0
2934 2584 24 0 72.12289770969555 29.232718514678695 70.80807040347699 0 -1 0
1795 1445 24 0 70.46457016702306 34.154921120295654 70.65536082515334 0 -1 -1
2994 2644 24 0 69.40012211887603 31.499255702487083 66.0119764223129 0 -1 0
1603 1253 24 0 74.95264387933317 33.590328867861786 67.31080351719655 0 -1 -1
1703 1353 24 0 79.58142327596379 33.845897253935085 71.35708516826313 0 -2 -1
1819 1469 24 0 77.15645959630905 29.271995247322565 68.63658639563005 0 -1 -1
2974 2624 24 0 84.41853501357792 30.232341041711322 71.55372727626239 0 -6 0
2395 2045 24 0 86.96158677989749 33.44491459769941 64.88178458172607 0 -3 0
2530 2180 24 0 87.01186005582345 28.857432551262573 67.1232446786094 0 -7 0
1818 1468 24 0 83.2019607757769 33.254108912509466 67.9438069112758 0 -2 -1
5223 0 24 0 88.59725707811438 33.12159251265896 69.96864745304518 0 -1 0
1750 1400 24 0 96.4531456936752 34.41704237613248 66.96820015571019 0 -7 -1
2423 2073 24 0 97.23545238653473 31.345990717962668 71.84391218817296 0 -7 0
4963 0 24 0 93.09071492830563 33.70208150696277 71.18482714584745 0 -4 0
2514 2164 24 0 91.53541682314699 34.66117698722422 65.66688241941102 0 -5 0
5490 0 24 0 92.72039778152114 30.398237255658643 67.74284401406469 0 0 0
5267 0 24 0 99.66608603106012 30.23802160319276 67.25707370790543 0 -1 -1
3246 2896 24 0 104.01904038421256 31.065098443746166 69.70079757976663 0 -5 0
1015 665 24 0 101.18844621951345 35.031957123544665 69.0140473639563 0 -8 -1
4228 0 24 0 110.65549446627173 34.4707565547234 71.46907347008023 0 -9 -1
4376 0 24 0 107.76035053199746 34.93911264854775 67.40619465612222 0 -9 0
2394 2044 24 0 109.75726944699598 30.562867592658673 68.38560564256282 0 -8 0
2998 2648 24 0 105.34801319184734 30.213070823327786 64.97549501727686 0 -7 0
3548 0 24 0 115.16430548465226 30.78796601562705 70.71911629224294 0 -9 -1
680 330 24 0 61.414226325641046 41.37291140328097 6.727602440041539 0 0 0
919 569 24 0 66.53562154910468 39.62148347077333 5.787206433000679 0 -2 0
588 238 24 0 62.6410606919191 36.65711327210548 4.531084841389803 0 0 0
806 456 24 0 60.009901984774544 38.89316954981846 0.8470141107343926 0 0 0
893 543 24 0 71.66148863105475 36.70931379191379 4.334352300845482 0 -1 0
1609 1259 24 0 73.61625014526 42.31288934237305 0.3596025015249461 0 -3 0
980 630 24 0 69.7341623283461 38.82938585964628 0.35718119876760485 0 -1 0
1473 1123 24 0 77.4085731763177 38.565728764555296 1.2647298475493194 0 -3 0
1797 1447 24 0 79.39620349431205 41.398689935846384 4.996822320919884 0 -3 0
2977 2627 24 0 82.62185518776552 37.72806417821582 4.972682210555422 0 -6 1
1662 1312 24 0 87.93230848586043 39.4545163638165 5.806599102534559 0 -5 0
5197 0 24 0 86.66480764885928 40.76756264458612 0.5586687462635078 0 -1 1
848 498 24 0 91.50464334240255 39.99768094887043 2.039297081958648 0 -6 0
931 581 24 0 95.75804339920468 40.376834591455356 5.0425497837099655 0 -5 0
5088 0 24 0 91.98475676647647 36.538349751419325 6.772471994830177 0 -3 1
5071 0 24 0 97.32627715888435 36.641346455520555 1.066393038917239 0 -3 1
3543 0 24 0 101.66584539432814 38.68102636056031 3.460822092006413 0 -9 0
5871 0 24 0 106.40737363467046 39.46781453300564 2.9941213546497893 0 0 1
1499 1149 24 0 66.61702173329942 48.10168269146108 2.032959377421023 0 -1 0
654 304 24 0 62.152282947133756 48.29004489211935 3.5765278332369435 0 0 0
2418 2068 24 0 65.6651538613641 44.90504125293409 6.031542862311817 0 -1 1
2756 2406 24 0 64.87360679346348 43.85935747372029 0.1433795997625177 0 0 1
609 259 24 0 60.11763253190551 43.50925182848117 1.669401574954398 0 0 0
1395 1045 24 0 70.66866291075887 43.205382948250744 4.724660688298656 0 0 0
1515 1165 24 0 69.57972345793561 48.31405213276485 6.218789198311351 0 -1 0
891 541 24 0 71.47589147294764 49.10817985842891 1.360838358568706 0 -2 0
1012 662 24 0 74.31252852125382 48.678084468870445 5.326707487945254 0 -1 0
1472 1122 24 0 75.46083413954815 43.820058602217166 6.7963184561382155 0 -1 0
2440 2090 24 0 79.32918377472826 44.59814620681424 0.979866490876456 0 -5 1
883 533 24 0 79.48191716836133 48.394918642037204 4.244958877491107 0 -3 0
2260 1910 24 0 83.64056152165145 43.44184200996654 3.290994996831314 0 -5 1
1736 1386 24 0 83.90163551640855 48.312072335719506 1.9051215903085053 0 -3 0
5432 0 24 0 88.86828062339643 44.85406944737913 4.640162067257462 0 0 0
1101 751 24 0 86.53732513051212 49.80687132900986 6.252339505421442 0 -3 0
3161 2811 24 0 94.46375779706408 44.64840115960703 3.0125830521816437 0 -6 1
1468 1118 24 0 92.1315014517004 48.65463094540891 6.213121297265696 0 -6 0
3241 2891 24 0 92.51574294787753 48.25110853751991 0.5180501207081701 0 -5 1
1807 1457 24 0 98.74317395889997 48.82660883535984 0.9825854939388732 0 -5 0
3840 0 24 0 100.32106413989509 44.30882105861454 2.405369085750896 0 -9 0
5147 0 24 0 101.18490385544156 49.54760985478747 5.351674141409416 0 -3 0
3179 2829 24 0 103.66209539485584 48.93747938750703 0.7934655087303355 0 -6 1
5655 0 24 0 104.40923375555967 44.28691721671938 4.879509603942098 0 0 0
5471 0 24 0 107.5969752446575 48.77152502216348 4.93116238276844 0 0 0
5718 0 24 0 108.19460302510242 44.51686744760397 1.407854060913552 0 0 1
6220 0 24 0 109.42585503602493 43.97693445319049 6.198864534508837 0 0 1
1537 1187 24 0 109.62994444934542 50.02864713525332 0.08654029362745205 0 -5 0
1424 1074 24 0 63.27858065958301 53.19594114388904 1.1673075761835296 0 0 0
1085 735 24 0 62.08810283856029 55.375220021757585 6.492339827279743 0 0 0
3183 2833 24 0 65.31477934777462 51.23132491866381 7.091342503754352 0 -2 1
1758 1408 24 0 68.71814051028456 53.504693227641795 4.069970374833406 0 -1 0
2554 2204 24 0 73.21466516681441 54.12265042818739 3.2567050775434994 0 -3 1
2392 2042 24 0 71.45156497951339 57.12909897483985 6.745744414518352 0 -3 1
3106 2756 24 0 76.5575025515077 56.64557997972138 0.23847000059813317 0 -2 1
1774 1424 24 0 77.35794458763893 53.00012133838454 4.999794142309704 0 -3 0
2347 1997 24 0 81.72750049081877 53.64621961982766 3.0649322277450297 0 -3 1
1036 686 24 0 85.77658809300324 55.532937547628 5.32003418232535 0 -4 0
5500 0 24 0 88.7947460707954 51.736697926626164 1.9330115200177107 0 0 1
1607 1257 24 0 86.6591973603625 57.01265780246037 0.6112981084097973 0 -3 0
1721 1371 24 0 95.69980268985417 51.03689313137247 4.553679848809111 0 -6 0
1671 1321 24 0 90.9881124946777 54.02465489542643 6.335309696681886 0 -5 0
1002 652 24 0 95.4058393739508 52.926209577059545 0.05492502410357483 0 -6 0
1644 1294 24 0 100.43851919027907 53.58460449324284 2.165300787073473 0 -5 0
6004 0 24 0 102.90227577342796 57.01308121915497 6.886962120336173 0 0 0
5093 0 24 0 103.72467284884026 57.44771500932314 0.5973130175409012 0 -4 0
5755 0 24 0 105.68802563464733 53.46584833864268 2.8804912571604286 0 0 1
5695 0 24 0 111.40539048780596 54.226336287934494 2.0956218037243954 0 0 1
6106 0 24 0 108.1094373663512 56.938338886511566 6.812587331270844 0 0 0
5087 0 24 0 114.27395525238231 53.987208288483096 6.888178314400458 0 -4 0
411 61 24 0 62.941200775818444 57.98487309149443 2.0339780676571055 0 0 0
1287 937 24 0 67.25369714824745 59.05555499316637 4.866082457994411 0 0 0
622 272 24 0 65.51785152589407 63.04355146024491 2.889136390536363 0 0 0
668 318 24 0 62.636526984261614 62.175342456989384 7.172641816755553 0 -1 0
902 552 24 0 71.49288228201684 58.65086777455369 2.299479915516385 0 -1 0
914 564 24 0 70.37472042793063 63.807151144912 5.84776182827001 0 -3 0
787 437 24 0 74.48637400576067 61.363172259538125 5.948863246130358 0 -1 0
2369 2019 24 0 78.5398498690455 57.969928995330655 4.690067161331706 0 -4 1
1780 1430 24 0 79.7535556988851 62.99235220041913 5.091555603070878 0 -2 0
2368 2018 24 0 75.45468198363294 61.72964585546926 0.6894633956244973 0 -3 1
1019 669 24 0 83.15202269486198 59.61897657944724 3.1095696178177845 0 -4 0
1596 1246 24 0 87.06539198624566 61.317317655109186 4.988755336615378 0 -3 0
1630 1280 24 0 87.21531893196396 62.73216365599903 0.22875191907230938 0 -5 0
3247 2897 24 0 90.61807470294661 58.61867013344526 2.7644415531363538 0 -6 1
1702 1352 24 0 95.83109784910532 61.67011964196506 4.141156712236096 0 -8 0
3073 2723 24 0 92.52321572543978 63.0439519281574 0.8447732386759988 0 -5 1
1071 721 24 0 91.47116713508656 62.36149235661123 6.936537107738035 0 -6 0
860 510 24 0 98.68678880874285 57.87414314865219 3.128249295457945 0 -6 0
4960 0 24 0 101.61292482867395 61.41712476342797 3.7950904934125096 0 -6 0
5989 0 24 0 108.06176566052751 59.357207794142276 1.7591546297346128 0 -1 0
5337 0 24 0 109.42318527850519 62.240586639162814 6.411839731442994 0 -1 0
5426 0 24 0 111.75885614853941 63.346707854752424 1.6564633330691028 0 -1 1
6155 0 24 0 106.05413395954231 64.15665260585001 2.737671863845342 0 -1 1
6161 0 24 0 113.30425934509873 58.6591398727713 5.177936862201214 0 -1 0
1769 1419 24 0 66.84327188564127 70.91946019086522 5.693202635475861 0 -1 0
430 80 24 0 61.97520260907705 67.37020347147575 3.4094872381731047 0 2 0
3128 2778 24 0 67.77270136671216 67.14123511070665 2.8434121070212592 0 -1 1
2469 2119 24 0 73.86995435233774 65.82750260571731 2.545921002421966 0 -3 1
1710 1360 24 0 71.7992891621492 68.97831674484596 5.65852681767866 0 -3 0
3212 2862 24 0 70.1598893911222 71.18207073637562 1.6243460445904958 0 -1 1
2223 1873 24 0 76.50695069353003 70.5970692059776 2.525017288255799 0 -5 1
994 644 24 0 78.29368795875381 66.0099561776235 1.3107148629435137 0 -3 0
1568 1218 24 0 80.26374470305404 68.34774428991037 6.274639629125622 0 -3 0
3109 2759 24 0 75.7683436111307 66.03669936052978 7.136130697791454 0 -2 1
4698 0 24 0 81.13506271157507 71.75527860995335 3.0506896861004646 0 -9 0
3049 2699 24 0 83.24413649626361 66.99066948563713 1.3587873598820006 0 -4 1
844 494 24 0 87.59900828597357 66.41925146699926 3.8978494664979086 0 -3 0
3080 2730 24 0 86.44671042400712 71.56918389279265 3.911452930196726 0 -3 1
785 435 24 0 92.98927039847034 66.72341267453204 5.373322899626543 0 -8 0
1505 1155 24 0 95.96685698274922 71.03693494967341 3.105402359528074 0 -8 0
4544 0 24 0 91.10773370973084 71.7176090054718 5.088571274384967 0 -8 0
5146 0 24 0 91.21371697833932 68.32391628024615 1.0219204571834402 0 -3 0
1649 1299 24 0 98.13821428563806 66.56667438201325 2.580008638509562 0 -8 0
4649 0 24 0 102.0221928502164 68.73186454884674 4.339560011181163 0 -9 0
6250 0 24 0 104.41162199557314 67.92018621297747 0.1169806226449853 0 -1 0
3515 0 24 0 109.16012561441138 68.56159321187585 2.5583380350126923 0 -9 0
5233 0 24 0 107.13088361009218 67.55031626105497 6.84691751240281 0 -2 0
5659 0 24 0 112.6510226672323 66.7333208857039 5.565726211960438 0 0 0
710 360 24 0 63.59359945605263 37.435367909329095 9.579302948074323 0 0 0
1224 874 24 0 65.18829075555006 42.26737106683817 10.189538444272099 0 0 0
438 88 24 0 60.179244519918704 40.721110115864924 11.669157713261349 0 0 0
1615 1265 24 0 73.01035355281516 36.91139180792361 13.59057467007767 0 -1 0
1142 792 24 0 69.00068732328698 37.900527717911004 10.053152608290748 0 0 0
1490 1140 24 0 71.936253278139 41.989545275250556 12.810106058042347 0 -1 0
741 391 24 0 73.99329509025665 39.30279454971696 8.582354001694465 0 -2 0
809 459 24 0 79.65484905800963 37.95876119284988 8.996732948800453 0 -4 0
1028 678 24 0 77.77663983930695 39.571487776306626 13.825234446861193 0 -2 0
3114 2764 24 0 83.92606865267804 41.34142473705872 8.611260723719695 0 -3 1
997 647 24 0 82.80549846475854 38.533945487149786 13.245840839952724 0 -7 0
943 593 24 0 87.40631532430405 38.65057022229298 10.811725177790283 0 -7 0
1572 1222 24 0 92.06690841071521 42.063916701922416 8.110296270223879 0 -6 0
1621 1271 24 0 90.66309965020112 42.49276431012117 13.175595443805397 0 -3 0
5681 0 24 0 94.59981101930896 39.05144516242158 11.504243535551986 0 0 0
849 499 24 0 97.30455752172482 42.74430174829831 10.383567151576479 0 -7 0
738 388 24 0 101.26025497839667 40.93214015575749 7.758162404967944 0 -7 0
4949 0 24 0 98.96953259220916 37.12211373346545 10.769229506691833 0 -5 0
4942 0 24 0 102.15997071135313 41.64365298827508 12.68008377283309 0 -5 0
5467 0 24 0 104.05343841415613 36.603901485274974 11.391867664130716 0 0 0
5425 0 24 0 105.9921743216833 41.00753080678704 8.342040684229499 0 0 0
920 570 24 0 108.94175507293448 36.873016656793006 9.750033039444412 0 -6 0
1319 969 24 0 60.43695896233751 49.41880525781597 12.371721379756645 0 1 0
950 600 24 0 61.08367903851086 45.914638349044516 8.825340040227267 0 -1 0
681 331 24 0 65.76702453192104 47.911772541818564 10.658562774768036 0 0 0
473 123 24 0 69.49688825992612 44.58732436449195 9.57153776795576 0 0 0
885 535 24 0 72.71418786583943 48.096620064955445 11.059213741830314 0 -3 0
877 527 24 0 75.75756281832034 44.46117899016524 12.023871534520625 0 -2 0
1689 1339 24 0 77.33375751516617 49.11232207929043 9.112541671766214 0 -1 0
4545 0 24 0 80.84175411146674 45.255384894767275 12.083559623389693 0 -7 0
3006 2656 24 0 82.75589564978387 45.98832261350006 7.424644871384479 0 -4 1
853 503 24 0 87.76574695547684 45.2007778277201 9.49745159099975 0 -6 0
1760 1410 24 0 84.36138793142574 48.882602105594884 10.880563727311888 0 -6 0
910 560 24 0 85.59625508292936 43.65971991529088 13.46990509713702 0 -6 0
930 580 24 0 92.92395430369197 46.52564182253374 11.064790638103956 0 -4 0
830 480 24 0 97.60886409854189 46.81824212213475 7.259454456289214 0 -8 0
6044 0 24 0 102.52088230326156 46.21183972576461 9.815347820668324 0 0 0
928 578 24 0 97.86827406637883 47.482300839723145 12.524065336781545 0 -6 0
6248 0 24 0 107.45430132380315 48.22480658238783 10.487630900550872 0 -1 0
5907 0 24 0 107.52819579047828 43.43361551770591 12.525033857739592 0 0 0
5796 0 24 0 112.54660346819765 50.2732007301325 12.606646124803468 0 0 0
777 427 24 0 63.974493069839006 52.752055422205615 11.994552434101788 0 -1 0
1731 1381 24 0 67.24891497529745 55.70431505027231 8.414360183808563 0 -1 0
964 614 24 0 69.10159058160124 51.45976268088474 11.035299132980025 0 -2 0
1540 1190 24 0 72.92830514844258 52.55816743626692 7.951716312626314 0 -1 0
869 519 24 0 71.07261687426386 56.084991351226996 11.485715559260317 0 -1 0
1521 1171 24 0 74.85442277896675 52.01343329273408 12.891317032352244 0 -1 0
1046 696 24 0 82.057658979097 51.707728060243866 7.566171142398129 0 -3 0
871 521 24 0 80.02554177442452 51.615608943915106 12.384010621901263 0 -3 0
755 405 24 0 76.81017344778279 54.89549372325423 9.133638937732165 0 -3 0
1038 688 24 0 80.28086357036386 56.645450187931495 11.775292418935733 0 -3 0
840 490 24 0 89.86120879793738 50.64981985522469 10.274584288217177 0 -4 0
857 507 24 0 85.5396577506207 54.10184334522044 10.713830888320636 0 -3 0
946 596 24 0 89.02850529338494 53.188016920440525 14.356241726532982 0 -5 0
3223 2873 24 0 95.47998117974282 50.73255611133109 9.617364753497343 0 -6 1
1044 694 24 0 92.97210915196402 54.794512229914574 10.996776197444628 0 -5 0
3641 0 24 0 97.19117664468818 54.07727083466869 14.052386440065103 0 -8 0
5589 0 24 0 98.63288962588547 53.93358147034093 7.741757182011258 0 0 0
5700 0 24 0 104.93480224334189 52.30464256368886 7.745813739806535 0 0 0
6206 0 24 0 100.29621886921636 57.1532542141686 11.656601087313415 0 -1 0
1054 704 24 0 101.43388735142153 51.36174480505439 11.277949010492987 0 -6 0
5416 0 24 0 105.13587860454953 56.710839688950664 11.107771565407111 0 -1 0
5406 0 24 0 109.66775191886991 52.91899214767608 9.037032362723973 0 0 0
5312 0 24 0 106.3670430792507 52.22214325147135 12.779610359228586 0 0 0
5995 0 24 0 111.90748708940893 56.785045388744074 11.122156259850698 0 -1 0
1627 1277 24 0 63.19175129505999 58.319199286426354 10.738182638735353 0 0 0
1691 1341 24 0 61.72652877696182 63.58490634917768 12.363325678212865 0 -1 0
1063 713 24 0 66.54595419870678 57.89244253613366 13.929520646864448 0 -2 0
1713 1363 24 0 67.84509971717202 60.752561803287925 9.435012958545078 0 -2 0
1700 1350 24 0 72.55545092657177 62.18022459053377 10.903217684197699 0 -1 0
1793 1443 24 0 82.4334368034924 59.12088208276424 8.169632538264446 0 -3 0
1698 1348 24 0 75.76396091499251 57.68656444894796 13.082309900221821 0 -2 0
3260 2910 24 0 77.74655456280644 60.52779538556888 9.459433984151326 0 -2 1
1590 1240 24 0 87.23363875089312 57.8019671805504 13.895176242345121 0 -4 0
1076 726 24 0 88.57559029971266 58.179259670714146 8.570554727611889 0 -4 0
780 430 24 0 82.5002294599329 61.44145736422996 12.796084730335288 0 -5 0
5089 0 24 0 88.22272680593453 62.283684599970854 10.95513260374062 0 -4 0
3523 0 24 0 94.4845223786993 57.96739090590285 7.35573223765782 0 -8 0
1573 1223 24 0 93.21128713286627 59.725166088790864 11.99949694829085 0 -6 0
2443 2093 24 0 96.03920648450487 64.42825305083903 8.875529527175253 0 -7 1
5336 0 24 0 93.09427752506565 64.49676542180748 13.048892272451315 0 -1 0
5745 0 24 0 99.42009640626729 60.40895825830646 7.921529641023482 0 0 0
5538 0 24 0 98.43821897584252 62.3112785824352 12.800448411838628 0 -1 0
962 612 24 0 103.00781560296564 60.74322263911838 13.27592922194302 0 -8 0
4105 0 24 0 104.64114549181473 61.44679348275571 8.248594585310517 0 -9 0
5751 0 24 0 108.28137038265832 60.75959887280609 11.691110585820722 0 -1 0
5470 0 24 0 117.03521808452477 58.37908023442544 8.616309728999463 0 -1 0
6251 0 24 0 113.03797748589645 62.75149161894362 9.711363871614031 0 -1 0
1260 910 24 0 66.6478282811311 65.36534989156749 12.95973499571199 0 1 0
1506 1156 24 0 66.21981105641261 65.86266770018732 7.660174777174559 0 -1 0
2412 2062 24 0 61.51065685301411 66.79968022642414 8.499060499473448 0 -1 1
1102 752 24 0 64.98082715184714 69.6856809989436 10.587611823782659 0 -2 0
1053 703 24 0 71.10574627884124 66.46296493214189 9.8887049275447 0 -1 0
2492 2142 24 0 74.39395524271421 70.89291429310455 9.785243563970015 0 -3 1
3224 2874 24 0 69.23450933148796 69.63741874874383 13.284674665082058 0 -1 1
924 574 24 0 76.04752531661943 66.68585158780344 12.333316452670424 0 -2 0
867 517 24 0 80.1004161577984 64.85272448668033 9.895340508748838 0 -2 0
808 458 24 0 80.26290415437795 69.22725890159728 13.022750698976271 0 -4 0
4374 0 24 0 88.71665745293315 71.31838603302454 12.201272342477234 0 -9 0
5162 0 24 0 84.29593112458933 64.9250473137677 7.763487432444354 0 -3 0
1792 1442 24 0 87.85869836534013 66.9778252045334 9.777527206657647 0 -4 0
1591 1241 24 0 84.1089642137579 66.00952629406602 12.772242465001462 0 -3 0
3943 0 24 0 83.81051925552052 70.37166322760625 9.644175729979487 0 -9 0
4945 0 24 0 96.93096040392959 69.19852525207298 7.54804973290205 0 -6 1
1513 1163 24 0 92.7821442523719 68.85692581130326 10.139475266150065 0 -7 0
1551 1201 24 0 96.76930988715333 70.99892454352677 12.471652000350904 0 -8 0
1073 723 24 0 104.84595177343438 65.49880731081922 11.77981198165989 0 -9 0
5680 0 24 0 100.83986300592538 65.40633534554928 7.485156262741094 0 -1 0
5941 0 24 0 101.22141254367024 71.2099888057342 9.132850974634117 0 -1 0
4565 0 24 0 99.91667133883965 67.20990594687392 11.79334203626173 0 -10 0
1624 1274 24 0 104.73304028701723 70.83643901904368 12.741741538657624 0 -9 0
5887 0 24 0 110.23138427097766 66.995359382673 10.584776781131705 0 0 0
1364 1014 24 0 63.5099297775745 38.363459676663275 14.781048424452656 0 0 0
593 243 24 0 61.045718343407785 42.001084329765 18.27007317317495 0 0 0
1745 1395 24 0 66.18042888709557 41.268316667556824 18.909207133736484 0 -1 0
1021 671 24 0 61.6891016236354 36.135821522334254 19.563601335320012 0 0 0
620 270 24 0 68.511102210927 38.53388395754705 15.251682505862417 0 0 0
198 1 9 -1 69.01247967583276 37.90378109309313 20.17470791594732 0 0 0
1457 1107 24 0 72.75943888131552 39.556526913597914 18.009429718003638 0 0 0
1476 1126 24 0 81.00307802426674 37.24447412437951 17.41271599440044 0 -4 0
1057 707 24 0 81.92429921254846 42.45787300365532 16.460169985944948 0 -3 0
1809 1459 24 0 77.56211387773799 40.08953442182221 19.197318311839553 0 -1 0
985 635 24 0 88.4511892196972 37.1652450137737 15.370644340730488 0 -6 0
1676 1326 24 0 88.05220292582698 41.83711753194876 17.41348875409323 0 -3 0
837 487 24 0 85.28608591903725 37.85386208379144 19.529383176775912 0 -4 0
874 524 24 0 93.18365773651578 40.29670008843102 17.547001356065124 0 -5 0
1005 655 24 0 96.78526323949792 38.944561953020866 20.755601619015977 0 -7 0
1008 658 24 0 103.02110074647625 38.70828096114297 16.636196916803264 0 -7 0
5165 0 24 0 98.05023086881744 39.05987403068398 15.263872618786928 0 -3 0
6006 0 24 0 101.3799548134102 41.469076214253306 20.41393519593487 0 0 0
6060 0 24 0 107.75845362492603 39.01495117783823 15.025587361803172 0 0 0
1668 1318 24 0 106.60065877440626 40.57017687229745 21.025312048572246 0 -7 0
4099 0 24 0 111.79278300007348 37.40614784933453 17.75272262719163 0 -9 0
5611 0 24 0 110.12540787919988 42.61992229368566 17.61343689991028 0 0 0
648 298 24 0 60.55683308723311 48.02425501812269 17.02754499543242 0 0 0
637 287 24 0 65.18061923640722 49.446142083282524 15.325426838815744 0 0 0
716 366 24 0 62.827239779368604 44.62654853679822 14.43462772132642 0 0 0
507 157 24 0 65.10097862000482 46.02615508695326 18.817786329007717 0 0 0
1272 922 24 0 67.62530523016198 44.76741756692124 14.536636768700237 0 0 0
1500 1150 24 0 71.21972395430622 49.17310344524015 15.685461859120005 0 -1 0
1092 742 24 0 70.28398403054194 44.23661706593406 18.900987636866834 0 -1 0
1174 824 24 0 70.26217597110328 49.768571700340985 20.83017337631696 0 0 0
1280 930 24 0 74.70851809383366 47.85512029354468 20.43716021169506 0 0 0
1493 1143 24 0 74.86866541961128 43.912938668397345 16.925844545368268 0 -2 0
975 625 24 0 76.85681191872372 48.04284130495796 15.439904128090623 0 -2 0
1614 1264 24 0 79.70782425916859 45.0742260869186 20.098841628416203 0 -1 0
1508 1158 24 0 82.49582705910015 48.156616492848315 16.026268859306068 0 -5 0
1548 1198 24 0 86.32669496359573 46.53008512654501 19.073638036145134 0 -1 0
1678 1328 24 0 88.71119336559971 47.013773599040256 14.462562308569307 0 -5 0
968 618 24 0 94.6561911595198 44.460623030493906 15.10055356439843 0 -6 0
1598 1248 24 0 91.23295921441378 46.10999343608792 18.822680687337648 0 -3 0
1550 1200 24 0 93.8165655894539 49.59282815011948 14.812500325564772 0 -6 0
1554 1204 24 0 96.13396797839926 47.48362232919979 19.30039320875726 0 -8 0
1571 1221 24 0 94.59494993108818 43.223021204446084 21.32334852913859 0 -6 0
5934 0 24 0 103.72658408132948 48.206695119828474 14.778286448386158 0 0 0
973 623 24 0 99.92285641775968 44.605210421633636 16.69666471706819 0 -7 0
847 497 24 0 102.5556417234154 47.12487510991498 19.69744725507391 0 -7 0
6055 0 24 0 99.63068645828885 50.208573668976555 16.85056661457781 0 0 0
5292 0 24 0 105.0504989171491 43.38781594809963 16.652859935675924 0 -1 0
4958 0 24 0 108.95027840522832 47.674790627139856 15.332480574456923 0 -5 0
3746 0 24 0 107.51368948977024 46.54031180057048 20.472141431305275 0 -7 0
1601 1251 24 0 62.21626194368212 53.62135168281854 16.50061603303862 0 -1 0
730 380 24 0 65.48575359049838 51.034240560917745 20.52182395710498 0 0 0
465 115 24 0 66.1928663337752 57.18377297446032 19.186290862967684 0 0 0
577 227 24 0 60.80165349711205 51.63454380117716 21.275900180801532 0 0 0
392 42 24 0 67.9730709865707 53.450014617977395 15.703424496543098 0 0 0
838 488 24 0 71.92626913096697 57.19309936908882 17.40450645989604 0 -2 0
483 133 24 0 69.88463780633019 54.58679594611453 21.0172206976542 0 0 0
960 610 24 0 74.65901560699604 52.89671282190193 19.688330283641836 0 -4 0
1625 1275 24 0 79.57343921005088 50.41398124295633 20.236575114096752 0 0 0
1047 697 24 0 78.41887316074603 53.435293876028844 16.36793496207757 0 -3 0
1009 659 24 0 80.83358892523188 55.80582734492093 21.080768199110608 0 -4 0
1752 1402 24 0 89.5834564138383 50.60932028477589 19.159359861364933 0 -5 0
868 518 24 0 84.61211579883427 51.82173746131913 20.65074402845083 0 -4 0
1816 1466 24 0 83.24592317054687 54.064226374313144 15.256031225030489 0 -4 0
1737 1387 24 0 84.95783438952772 57.548921655846044 18.507238357619624 0 -5 0
4379 0 24 0 90.52221810147348 54.941956968922675 19.882385952414644 0 -9 0
5530 0 24 0 95.2778655634734 52.32004086678135 18.339145418125394 0 0 0
5152 0 24 0 93.68354931103201 57.29448938686479 16.312553645295324 0 -3 0
5049 0 24 0 100.83867378055676 54.21401309951586 19.765786710363848 0 -5 0
5651 0 24 0 102.33223226853022 54.1895317521319 15.322090846953637 0 0 0
5468 0 24 0 106.9517446408973 56.71050535637451 15.623036199539838 0 0 0
5230 0 24 0 105.6784277176377 51.30493378760619 17.905719086527174 0 -1 0
6041 0 24 0 111.13387221577513 53.710102733978076 15.507289167162304 0 0 0
855 505 24 0 110.96967770773948 55.76142958727038 20.342780942877912 0 -8 0
3843 0 24 0 105.92387911554825 54.907985674056434 21.313032259881023 0 -9 0
3865 0 24 0 109.298763419209 50.87475000108898 21.446587506241734 0 -9 0
1682 1332 24 0 60.99150084438736 58.194187187907794 15.107926207940526 0 -1 0
995 645 24 0 64.3922233646652 62.22061679403717 16.079712803469008 0 -1 0
1310 960 24 0 61.7143632434416 60.12496489321376 19.315402049851205 0 1 0
1785 1435 24 0 68.95085796698979 61.08344045294894 16.992156115777863 0 -1 0
1690 1340 24 0 74.1510101843638 62.58770971247604 20.22224671717162 0 -3 0
1510 1160 24 0 76.38634613332049 57.678304634111996 19.975236977175836 0 -2 0
1619 1269 24 0 79.56521716425853 58.87144748490866 16.281851533068682 0 -4 0
1632 1282 24 0 75.53860673555225 62.42394887919021 15.334854622352182 0 -2 0
1026 676 24 0 88.12295925965356 64.28912645966393 20.87450964691013 0 -5 0
1492 1142 24 0 85.7607102219509 62.489550879021316 16.290671042587565 0 -2 0
1582 1232 24 0 82.73375877065598 61.570670851619205 20.516934060286577 0 -3 0
1623 1273 24 0 88.65595233789449 59.25153788236381 21.164160505284354 0 -5 0
898 548 24 0 90.40544144432701 61.173439626681876 15.985475722807408 0 -4 0
6053 0 24 0 95.49235898370819 62.26209803382801 17.243038470748086 0 -1 0
1599 1249 24 0 93.95690445084833 59.52823637565746 21.039315141760884 0 -3 0
1504 1154 24 0 99.29110295231486 58.925611699800015 16.310474545793202 0 -3 0
4240 0 24 0 101.21767750511479 64.51496003288328 16.834801261349398 0 -10 0
894 544 24 0 103.30260457256293 58.51576424548892 19.743333423566966 0 -6 0
5085 0 24 0 98.93049067163199 60.278990950957095 21.135022058011984 0 -4 0
6140 0 24 0 106.19071609703155 62.02208970318366 17.719941075880328 0 0 0
3621 0 24 0 111.17861018425573 60.3320316551278 16.98990820012022 0 -10 0
988 638 24 0 110.46474576517126 64.55746440661434 20.005495652227534 0 -7 0
584 234 24 0 63.15439452672295 65.50836812203963 19.732329465824144 0 0 0
1454 1104 24 0 61.90843823023592 67.75891485131882 15.111186058677221 0 1 0
572 222 24 0 67.22479190619772 66.96143849875934 17.37275369374581 0 0 0
643 293 24 0 64.92507546790051 70.99738428496558 19.952072027840693 0 0 0
1516 1166 24 0 65.11901852984849 71.24403993307618 15.133049255703908 0 -1 0
1050 700 24 0 60.0466763463499 69.18403930289294 20.490856616747973 0 -1 0
1007 657 24 0 71.73824629174085 65.5297346502202 15.144790879123871 0 -2 0
2466 2116 24 0 71.43038671272758 67.21132195242421 20.6220606579525 0 -2 1
1629 1279 24 0 74.04468781138233 70.68051396271235 14.920476905784675 0 -2 0
991 641 24 0 71.06737935003181 71.9514437154224 19.128734470621186 0 -2 0
859 509 24 0 80.38253520461853 64.90371455660603 16.5991365067331 0 -6 0
1522 1172 24 0 75.85998397800303 67.10165814814418 17.75757488546442 0 -2 0
1052 702 24 0 79.79603429121181 70.49743769460581 18.134669705047475 0 -3 0
1812 1462 24 0 78.60068095365338 65.1686543295751 21.43689421457559 0 -1 0
1677 1327 24 0 88.6979056556561 66.4547720797219 14.737636718719006 0 -5 0
1049 699 24 0 85.09265454515037 70.21105455699994 15.545286545376431 0 -5 0
1469 1119 24 0 83.51545011021561 67.29482698881155 19.410855955214032 0 -7 0
1564 1214 24 0 88.61166509989302 69.41548989722632 19.672334760813108 0 -5 0
4622 0 24 0 91.89556435548205 65.85325860417456 18.176033523040946 0 -9 0
1075 725 24 0 92.89712520341972 70.14171465228306 15.027889171027411 0 -8 0
3345 0 24 0 93.76332929310291 69.9461485226812 19.76390669261962 0 -9 0
4940 0 24 0 96.78037044128311 67.29983230986197 15.821504547163746 0 -5 0
4959 0 24 0 100.92707509392204 70.06985480401404 15.963046011540351 0 -6 0
6215 0 24 0 102.62432315762534 69.05041233813131 20.529473476751182 0 -1 0
5399 0 24 0 98.2445310563588 66.48235078036825 20.76454232793056 0 -1 0
5915 0 24 0 105.4848628231342 66.66761209023142 16.677009915611265 0 -1 0
6107 0 24 0 109.98939081515279 68.4845564982719 15.69558944528448 0 0 1
1794 1444 24 0 106.96678547448822 71.93676324000542 18.559999886913996 0 -9 0
6119 0 24 0 112.68948045325027 69.57627172180338 20.323949967086957 0 -1 0
695 345 24 0 64.28939798402347 38.68305680943115 22.598329311063264 0 0 0
203 1 3 0 62.266259678559976 41.735446732482 25.27661508261328 0 0 0
373 23 24 0 61.42500280551177 36.182434474605735 25.596591026916244 0 0 0
2 1 2 0 62.83831104878169 41.87390111423548 25.427977378002065 0 0 0
454 104 24 0 67.36906260585725 43.19163470207657 27.364436500515783 0 0 0
205 1 3 0 63.5939038414151 40.36621824869826 28.15562066310026 0 0 0
1436 1086 24 0 74.57615082725405 42.539047754620434 21.814709308915454 0 1 0
1350 1000 24 0 73.4091519565287 36.49378672411378 22.927343749813986 0 0 0
200 1 8 0 70.04189790401321 41.64010254799923 22.230224466065785 0 0 0
420 70 24 0 67.72764551610679 38.22258450297089 26.500521979509443 0 0 0
197 1 3 0 70.05134558600605 40.810821232322226 22.55574776098042 0 0 0
196 1 11 0 71.07132008522632 41.74307502341502 25.254148427776407 0 0 0
193 1 7 0 71.77043757431336 38.748740845356245 28.485938924322305 0 0 0
194 1 3 0 71.54667516688352 40.520119757733035 28.3291776491805 0 0 0
519 169 24 0 75.93257726676606 39.78265234371978 26.345503639070934 0 0 0
162 1 10 1 80.98992246023913 39.799640835514936 26.734772514159445 0 0 0
1474 1124 24 0 79.83112974756534 38.13738574568789 22.960201749249688 0 -3 0
3499 0 24 0 89.24752306038513 39.392381223058386 21.964691067731515 0 -6 0
1250 900 24 0 83.12500797349865 41.701000475823705 21.66892357241319 0 0 0
1543 1193 24 0 85.07722286499347 38.877815483459905 24.963456932901895 0 -4 0
880 530 24 0 88.8827382134453 41.041749834432046 28.385802977206545 0 -4 0
1065 715 24 0 93.20364906731992 36.304824407562286 22.67958193319634 0 -6 0
945 595 24 0 94.27503893509768 40.35216184853562 25.37336635982582 0 -7 0
842 492 24 0 91.59522220871956 36.90102078752984 28.035986742393938 0 -3 0
1077 727 24 0 99.50801214254834 38.708312846764315 25.452189281479686 0 -7 0
3777 0 24 0 104.32640608053292 39.98067822726037 26.783320139411465 0 -9 0
4659 0 24 0 103.22665892274264 36.68657780444833 22.77959953893692 0 -9 0
4760 0 24 0 108.24181968772636 36.69136142477876 24.624677966684786 0 -9 0
3347 0 24 0 109.07362966526212 42.4215492330454 25.593002123846976 0 -9 0
6247 0 24 0 112.86660856650668 38.984505833094644 26.215928857656973 0 0 0
201 1 14 0 63.954262872003376 43.380901422189424 22.42586132003874 0 0 0
202 1 8 0 62.42496635242408 43.65709228729171 25.44089162611082 0 0 0
390 40 24 0 60.889080328765544 46.592561510019806 21.806117056512914 0 0 0
204 1 12 -1 62.32153519897388 45.311618789377896 26.680255580547453 0 0 0
1 1 1 0 62.98536913641679 45.48011859232075 27.182037073530203 0 0 0
693 343 24 0 66.52834381336174 47.16696381341275 23.835979881968584 0 0 0
1137 787 24 0 62.987425857675355 50.18683293851471 25.36120240951514 0 1 0
199 1 6 0 67.6672212290235 43.31267018687514 22.527740894380443 0 0 0
520 170 24 0 71.33311958699537 45.966787589754446 23.76496952251243 0 0 0
1045 695 24 0 71.25289085514008 48.86591556302291 27.69068854838395 0 -1 0
1831 1481 24 0 74.49364367468984 44.59135967941143 27.862516270185335 0 0 0
778 428 24 0 76.01753014980024 49.43866475269428 24.99376832808156 0 -2 0
542 192 24 0 78.59520971826538 43.75514519190611 25.41569300627807 0 0 0
1566 1216 24 0 79.9382782553218 47.25011851570826 28.62780326976273 0 -3 0
1583 1233 24 0 87.29807014324444 44.059060815558574 23.492942985847144 0 -4 0
761 411 24 0 82.77323992414709 46.72513437054931 23.661643889383434 0 -3 0
890 540 24 0 83.89718088891097 43.78973759933686 27.71396656509475 0 -2 0
804 454 24 0 87.18370744316083 48.73454348104359 24.876979758489632 0 -7 0
954 604 24 0 91.6807779528114 46.220140688499704 24.08699982197718 0 -4 0
5988 0 24 0 95.82041036782587 45.68406425285083 27.08271980963428 0 0 0
1494 1144 24 0 90.8614184872233 49.587665481068825 28.151397848758407 0 -6 0
5291 0 24 0 100.67060796054768 43.346082518429355 27.12482659366641 0 -1 0
772 422 24 0 98.84352722032293 45.21164212532406 22.948682317361122 0 -7 0
5270 0 24 0 104.67178012935503 44.28694147470771 23.900905684112438 0 -1 0
5398 0 24 0 99.04722674397892 50.10002794883664 21.810691124316108 0 0 0
876 526 24 0 101.47184307559264 48.51530289221506 27.44664799933389 0 -8 0
5422 0 24 0 104.31267738531255 49.4539935740844 23.54528242712651 0 0 0
5893 0 24 0 112.39523309374943 45.183111554121744 22.020317074026593 0 0 0
5750 0 24 0 108.75601784809616 47.3453615349081 25.71418280201568 0 0 0
4798 0 24 0 105.12617386920624 45.52907888470629 28.798837979037213 0 -10 0
528 178 24 0 62.36788518112171 55.35066965447638 24.001652070432737 0 0 0
709 359 24 0 67.88953207712778 52.16750517997878 24.987801031429335 0 0 0
1798 1448 24 0 72.39267492254163 53.3390575017535 25.531032181024287 0 -4 0
1562 1212 24 0 67.76231283904882 57.251455077409155 25.40291908187654 0 -1 0
5086 0 24 0 76.88204712639269 54.585686849446105 23.834196664663125 0 -3 0
1637 1287 24 0 80.57299122135852 57.23602987557319 26.19692759333017 0 -2 0
1810 1460 24 0 78.24210657391873 52.581677072866825 28.058510667935852 0 -4 0
3039 2689 24 0 75.24443679342312 57.364495896117646 27.506964829844826 0 -1 0
951 601 24 0 83.18215760642386 53.07830057350712 26.037001656451118 0 -7 0
1017 667 24 0 85.61631269957873 56.30265958335907 23.368378450915408 0 -3 0
814 464 24 0 88.97820716610079 53.10305172761784 24.19031066969844 0 -3 0
1082 732 24 0 89.26183732229468 57.241196888124996 27.539955725164873 0 -6 0
1097 747 24 0 93.26655860010376 50.80430475523363 22.601306552644825 0 -5 0
956 606 24 0 93.43759566761231 54.62788974981475 27.11252005467509 0 -7 0
923 573 24 0 97.39518710394363 55.79650151140713 23.2435713492102 0 -7 0
4049 0 24 0 96.87678419028718 50.91965470567995 26.92569505838287 0 -8 0
1724 1374 24 0 101.9321677923863 53.407357479432605 24.91436061179055 0 -7 0
3533 0 24 0 106.84648317849256 51.73958499742304 27.029484049018198 0 -9 0
5601 0 24 0 107.44960672192967 56.95202039751876 25.9392193510085 0 -1 0
712 362 24 0 62.57316474964698 61.25691765744397 24.353748057685525 0 -1 0
1229 879 24 0 66.24624130456455 63.499822807474004 26.334339291987504 0 1 0
1802 1452 24 0 67.16398116296781 61.981244329614235 21.618795706277467 0 -1 0
1083 733 24 0 60.993819634674075 58.306224630960855 28.213590174188006 0 0 0
1688 1338 24 0 72.07892579853339 58.65672426922214 22.98685841066784 0 -1 0
810 460 24 0 70.75014237221002 60.58021127560523 27.650990803677868 0 -1 0
979 629 24 0 72.76050958123362 64.43100000306671 24.40266014276253 0 -1 0
764 414 24 0 76.85595471917908 60.906125998312355 23.958142955734175 0 -2 0
866 516 24 0 82.13302300145163 64.15667243232316 25.11231962026331 0 -3 0
1808 1458 24 0 78.85869350435614 61.938198037889165 28.70234302724229 0 -3 0
3412 0 24 0 87.90430578269532 61.76747794241919 25.752891417047884 0 -8 0
2456 2106 24 0 84.79387151072994 58.71834803681173 28.269739642823442 0 -7 0
4969 0 24 0 94.2471311378608 60.05152197784209 25.735505513032393 0 -5 0
872 522 24 0 93.7851492320804 64.15280699150428 22.47437117714968 0 -7 0
6189 0 24 0 103.2743375182534 63.077344716570245 21.928371631207632 0 -1 0
4369 0 24 0 98.29465108159297 57.61416136947389 27.8569957386741 0 -9 0
1546 1196 24 0 99.24605102380815 63.27386410152254 24.788880293744594 0 -6 0
6118 0 24 0 102.28716856846049 58.62608809610306 24.541745407949453 0 0 0
3405 0 24 0 105.33462643158516 62.302404908243325 26.69088193548824 0 -10 0
5656 0 24 0 107.58306374046609 60.47688833267437 22.431779449911147 0 -1 0
1397 1047 24 0 62.021879818502214 66.6915518226915 25.27265518377345 0 2 0
884 534 24 0 66.45351555663476 67.96320322002185 23.191885255579336 0 -2 0
1124 774 24 0 60.26531081704843 71.85887788838298 25.193564576393513 0 1 0
1486 1136 24 0 74.02945194529512 69.6359155160198 28.14802885978409 0 -1 0
727 377 24 0 69.38887373758041 67.00438401635878 27.92141808168677 0 0 0
1051 701 24 0 70.40425254649013 71.06448322449712 24.092761157876712 0 -1 0
1788 1438 24 0 75.35304440366943 69.99165302524594 23.11383332761209 0 -1 0
1519 1169 24 0 80.9778872579554 69.48536741769473 23.071363987071354 0 -2 0
1712 1362 24 0 77.79778106901482 66.59278569562629 26.065668299697403 0 -2 0
759 409 24 0 88.62131212904737 69.6089038976264 28.387754463553858 0 -8 0
1066 716 24 0 82.65069396312803 70.45211847441871 28.444057062639402 0 -2 0
1068 718 24 0 86.2194319742826 67.53216057570886 24.044033158317163 0 -3 0
4863 0 24 0 90.91041384018071 64.96391539530988 27.572703899831303 0 -9 0
1023 673 24 0 91.93994000292517 68.35047748848847 23.852828324157834 0 -4 0
5328 0 24 0 96.01864975819592 66.03678498037044 26.861406150218578 0 -1 0
4416 0 24 0 94.7346085722237 71.5274750095988 26.26282654903197 0 -9 0
4929 0 24 0 100.85914600520746 68.34127534003872 25.188928798755867 0 -6 0
936 586 24 0 99.34179717745725 71.88982685454425 28.752321817068786 0 -8 0
5779 0 24 0 106.12756809178333 68.18101765582486 28.612890253346237 0 -1 0
6001 0 24 0 111.18212178997548 65.11285728680019 26.360512741370776 0 -1 0
6046 0 24 0 105.7684541908151 66.53930961462201 23.737033539611428 0 -1 0
5825 0 24 0 109.70976393222566 70.26332561221123 26.558424315650058 0 0 0
4 1 4 0 62.854505051625175 40.936832692321396 31.40333245124316 0 0 0
208 1 2 0 62.88386035722668 41.28278025132485 30.224061763304356 0 0 0
206 1 4 0 61.78580187500915 39.9968747648762 31.014042487351922 0 0 0
5 1 3 0 62.0475963122468 41.387232382593126 31.904434792057636 0 0 0
207 1 3 0 64.31055253110473 37.78200117024755 29.88168529511642 0 0 0
209 1 6 0 64.0868022462888 37.68258281226004 33.3171086442088 0 0 0
400 50 24 0 66.97914459082874 40.85018879341254 33.13335703586759 0 0 0
10 1 4 0 62.78559503319164 37.99095028878776 35.31258510009164 0 0 0
212 1 4 0 64.8928474544743 36.47906391763308 32.61633381397178 0 0 0
189 1 4 0 72.29004531304975 38.54504966752907 35.40591220719333 0 0 0
188 1 3 0 72.63773612963129 41.451688780444705 33.63891109074583 0 0 0
708 358 24 0 69.89309965074311 36.958148898725604 31.62532801659135 0 0 0
192 1 6 0 73.93271921145255 38.96863735635725 30.097061192321075 0 0 0
195 1 22 0 73.2283869648354 38.118943267592115 29.675605348132326 0 0 0
187 1 7 0 72.0913037718242 41.08975293263312 35.50232472235079 0 0 0
190 1 6 0 74.82383530266078 41.717344256024184 31.368636614431754 0 0 0
186 1 6 0 72.17854184823963 38.404140699721395 35.678029063364946 0 0 0
156 1 3 0 79.00232264956517 36.01174430625461 33.19997902110519 0 0 0
161 1 8 0 78.90260000446933 37.78658449913035 28.83320386358433 0 0 0
171 7 17 36 76.49910159124533 37.04539745799044 35.778039659166275 0 0 0
158 1 3 0 78.57494979280077 36.42523214356135 30.018878785400258 0 0 0
159 1 9 -1 77.90838972387 38.65824415097787 32.29088762469284 0 0 0
766 416 24 0 79.13839455203346 42.230117819887305 29.95413088830704 0 -1 0
1834 1484 24 0 81.0275069920332 40.72330751889768 34.54417613600009 0 0 0
169 7 16 36 80.6778035437099 36.10342686962719 33.83118220765121 0 0 0
1380 1030 24 0 82.99731246569542 38.32977982158282 30.473568859095106 0 0 0
1776 1426 24 0 87.01906877079867 36.15858533575028 29.491481606530467 0 -4 0
909 559 24 0 85.80717083709425 41.46549498740654 32.355956349793026 0 -4 0
887 537 24 0 91.5267038950259 39.52867474730981 32.89776357768199 0 -2 0
1087 737 24 0 97.14208628107174 40.76921133283082 29.803371082161224 0 -7 0
4620 0 24 0 100.73545358112327 40.61292656278671 35.00612533361579 0 -8 0
3102 2752 24 0 101.14479473035121 37.72636476208224 30.48020543271272 0 -6 0
6218 0 24 0 104.38074088610944 41.616096727723175 31.490314359687396 0 0 0
3866 0 24 0 112.48872173923877 38.83894733184433 35.32796445321971 0 -9 0
1069 719 24 0 106.63876198174066 36.124882156264746 29.198469673258522 0 -7 0
5351 0 24 0 105.90085248382175 37.84833648934223 34.623318476474424 0 0 0
5073 0 24 0 109.97281802903106 40.389357017134 30.544878606719756 0 -4 0
4805 0 24 0 113.28953387658022 36.533654668169554 30.145936749144283 0 -9 0
396 46 24 0 60.793482215180994 49.01498078272994 29.692208432704806 0 0 0
241 1 6 0 63.400348017407886 47.33762651589418 35.50591591666653 0 0 0
243 1 3 0 60.7283269818961 47.07881951232791 34.11347946341107 0 0 0
6 1 5 0 63.690352688581605 43.79311820721939 31.89864635227601 0 0 0
3 1 3 0 63.43351308933976 44.198859631112995 30.553670072000955 0 0 0
244 1 21 0 63.54410145940817 45.44458724586197 32.4935140533535 0 0 0
242 1 7 0 64.4632897274818 45.123392933634335 34.32089097949496 0 0 0
488 138 24 0 66.43728458091277 48.52348017036619 29.057931876073585 0 0 0
238 1 3 0 66.96964087868494 47.56391732042866 34.73914962257478 0 0 0
2084 1734 24 0 72.20062478963997 46.662981025184244 35.44279890336269 0 0 0
191 1 7 0 73.90093011729729 43.58586908344287 33.096609327997385 0 0 0
240 1 19 1 67.5882795725256 47.92562216147988 34.85357922594273 0 0 0
1932 1582 24 0 69.79845325740861 44.75288188681722 31.254423831889106 0 0 0
469 119 24 0 75.27525609897506 49.385580940815416 30.602919108247786 0 0 0
735 385 24 0 77.12379366763992 45.41315684632351 33.5505821749021 0 0 0
2351 2001 24 0 80.21574742785873 49.676186645406915 33.38038620155941 0 -4 0
5033 0 24 0 84.30269656500845 49.214677792827274 30.449620280199657 0 -5 0
1762 1412 24 0 82.71169117267073 45.319199114149626 32.51230861203137 0 -3 0
5151 0 24 0 88.50944713714192 45.77313297841391 29.86256613835358 0 -3 0
784 434 24 0 93.33620803466272 44.03832620218965 31.711289080973813 0 -5 0
5260 0 24 0 91.14496152730074 48.17307962543223 33.967216471875595 0 -1 0
1790 1440 24 0 94.76943440958294 48.96363398232978 31.101024708866166 0 -6 0
1576 1226 24 0 96.0023656859236 49.96768191796713 35.75098220883982 0 -3 0
6021 0 24 0 102.73538637968615 46.597412617703554 33.8999343226336 0 0 0
1761 1411 24 0 98.7121062614374 45.33997841037534 31.535954567924055 0 -7 0
5486 0 24 0 106.51632278390395 49.49574907986452 31.556843967703767 0 0 0
3002 2652 24 0 107.97511593492449 44.77169133211978 33.25940598180838 0 -8 0
724 374 24 0 64.90136326473903 54.45417124816149 28.825318484389317 0 0 0
2070 1720 24 0 64.08912201946808 51.0766039125507 33.421295979767315 0 0 0
2128 1778 24 0 66.45123141065456 55.74083676669776 33.52903056861634 0 0 0
2150 1800 24 0 60.419459550500584 54.1654653359271 31.62636862062787 0 1 0
2009 1659 24 0 69.50800487830375 51.479531789686845 32.527744994663024 0 0 0
1256 906 24 0 70.70151111512091 55.52575581150389 29.963514192624192 0 0 0
2361 2011 24 0 74.91332157427355 54.857219580647396 32.64335145485127 0 -4 0
1672 1322 24 0 79.23064851917579 54.43829304931233 35.76519891468759 0 -4 0
2848 2498 24 0 75.67521603231658 50.82241874841539 35.63535197131268 0 0 0
1541 1191 24 0 82.95833743631377 54.31933764103412 31.80774554576645 0 -4 0
1806 1456 24 0 86.67431115905053 52.16676976409856 34.015599592408364 0 -3 0
1013 663 24 0 87.28106235725372 52.8601794045603 29.14862362162106 0 -2 0
1680 1330 24 0 87.2860402199658 57.207594588605474 32.49451519818761 0 -1 0
1478 1128 24 0 91.0579256897297 52.93078054062027 31.947694170008226 0 -4 0
3071 2721 24 0 96.2270145130146 53.86298152584729 31.238394397737864 0 -6 0
3165 2815 24 0 94.04347181938844 54.86978817350829 35.422135047437216 0 -6 0
2429 2079 24 0 99.1939779059817 54.00885786093724 35.943755640492554 0 -7 0
5168 0 24 0 100.06943451873205 50.997733197158816 32.17386541358224 0 -3 0
5373 0 24 0 103.41934782589166 54.65682107176758 29.699349995502878 0 -1 0
1040 690 24 0 104.83644524867634 53.37773804140656 34.395528197732894 0 -8 0
1729 1379 24 0 108.51759442430922 54.92381371904739 30.006680512709472 0 -9 0
1754 1404 24 0 62.33436155617866 57.811125407739006 35.20072103294927 0 -1 0
601 251 24 0 65.62929931864815 59.52960301756603 29.62258371595965 0 0 0
1213 863 24 0 64.87038638911935 61.56406330325016 34.14623246111349 0 1 0
496 146 24 0 61.38308517278693 63.064896345147766 31.48157178068285 0 0 0
1495 1145 24 0 72.19673531691717 64.15038371865484 34.489157936773466 0 -2 0
1759 1409 24 0 68.40162916723287 63.448013050836146 31.03591818084472 0 -1 0
1876 1526 24 0 69.55732863355607 59.32843016615726 33.63252419380935 0 0 0
1804 1454 24 0 74.2993988040891 60.100710866380574 31.58677784749453 0 -4 0
1602 1252 24 0 73.73966690932357 64.57920542511805 29.375522049959894 0 -2 0
1706 1356 24 0 78.67058647433024 58.07062396533855 31.79266989317803 0 -1 0
1099 749 24 0 77.96842900507401 62.65939335442086 33.53342406732538 0 -2 0
4994 0 24 0 83.04638593763268 60.968539878654916 31.942167353706367 0 -5 0
3107 2757 24 0 87.8381947279898 61.70181631682346 30.513304574338527 0 -6 0
2965 2615 24 0 84.28673746392768 64.69039219212125 35.12810798398915 0 -7 0
801 451 24 0 95.33519064333684 61.245593016244385 35.949752709433184 0 -7 0
1507 1157 24 0 93.38245488707733 64.28663230089252 31.953990134662888 0 -8 0
4724 0 24 0 90.84482545343427 60.45097551012691 34.258747202974504 0 -9 0
3854 0 24 0 93.16926059174382 58.543348798479904 30.640356752762745 0 -9 0
4222 0 24 0 97.11775304785704 62.19863555335962 29.529898131859966 0 -9 0
5188 0 24 0 101.60146914643282 64.73241548007255 29.100305138027384 0 -2 0
4483 0 24 0 97.94190794454809 58.1582826987424 33.03043894464066 0 -9 0
4974 0 24 0 99.57108713553912 62.97690897660679 34.26071894019068 0 -6 0
5092 0 24 0 102.34203170664969 59.67963539577494 30.71301500673991 0 -4 0
5232 0 24 0 102.20558121071754 58.84638024126149 35.97568024266647 0 -1 0
3736 0 24 0 105.22091996849456 63.26048509266788 31.893122012730263 0 -9 0
4637 0 24 0 106.49969070347629 57.93524983713421 33.40445522045102 0 -10 0
4050 0 24 0 109.50099896441135 61.300642100208 29.52581416805514 0 -9 0
1704 1354 24 0 61.55925954486625 71.402347980957 31.283493541279782 0 -1 0
1091 741 24 0 66.60141732274195 71.77710344884571 33.07520233891623 0 -2 0
3051 2701 24 0 61.38020605664115 67.32119872133009 34.66002531093038 0 -2 0
1182 832 24 0 66.03389194408683 66.36879582281249 34.596030673653345 0 0 0
503 153 24 0 64.61998588217564 66.78622036041975 29.951297752222843 0 0 0
1595 1245 24 0 70.82827285800984 68.46699288409103 32.69288076236964 0 -1 0
5039 0 24 0 79.75743708666252 70.83297334615658 32.58319183387011 0 -4 0
1653 1303 24 0 76.04336230600433 67.70489175454698 32.34441480933308 0 -3 0
1081 731 24 0 80.78168870483533 65.81189196600776 31.017131293966674 0 -7 0
832 482 24 0 88.33312278303102 66.45875986767194 32.91625424237702 0 -9 0
2358 2008 24 0 84.78949422187911 70.08744520628674 33.259273861286225 0 -4 0
881 531 24 0 84.91889158961071 65.9021054698513 29.1387321698663 0 -7 0
4691 0 24 0 91.96414870075728 69.5382575639167 35.27864618069155 0 -9 0
3780 0 24 0 97.09253460534079 70.87097029162682 34.85716391354503 0 -10 0
4243 0 24 0 93.32050481655487 69.37875645189733 30.219080710586237 0 -9 0
1489 1139 24 0 97.82052776262698 67.25983892251794 31.790550937831235 0 -8 0
5816 0 24 0 103.02994122607747 68.6723334816189 32.41448525124083 0 -1 0
6256 0 24 0 108.99701819442781 70.80867833723617 31.437665321123394 0 0 0
6005 0 24 0 109.36837912742031 65.43446508033826 33.30365270887395 0 -1 0
224 8 17 0 65.5877461881732 39.646643094212806 41.92422763327284 0 0 0
221 1 3 0 66.06469675150797 39.96355817281228 39.809245676843936 0 0 0
223 8 17 0 64.71077559449192 39.27650169022956 39.08486612243582 0 0 0
225 8 23 0 63.80752534878173 41.4891889925066 40.62413907387252 0 0 0
2056 1706 24 0 61.89416391709173 37.898666546456965 41.595634293135454 0 0 0
222 1 15 0 66.1795800104769 37.09602347699892 40.506591722978506 0 0 0
655 305 24 0 63.59502424452114 41.97479655385333 36.42219228423055 0 0 0
2031 1681 24 0 67.980229532331 36.241816201196585 36.21562825523084 0 0 0
219 1 6 0 68.53884150676173 37.55226224522509 40.37272312971627 0 0 0
226 8 3 0 67.98363130896408 41.36252733719902 41.785956823247965 0 0 0
228 1 3 0 68.69041508026015 40.846785678272326 38.779098563923625 0 0 0
227 8 12 -1 70.91438145788499 38.214267695499174 40.61622054224895 0 0 0
229 1 21 0 71.1055250306858 38.11062727159031 39.87014793959501 0 0 0
217 1 8 0 70.3812763942487 37.98445243204892 41.053424946432436 0 0 0
232 9 17 0 68.17787341277416 40.41880032697314 37.322065868395086 0 0 0
231 1 18 0 68.66512769133774 42.61796922306935 39.8557312707166 0 0 0
2089 1739 24 0 73.11390124721541 43.19498776160411 39.37998006819326 0 0 0
233 9 17 0 68.48812424746218 43.163559191622646 36.519104661386955 0 0 0
235 9 4 0 67.87596462914034 42.56653272083014 41.39558094294399 0 0 0
179 1 5 0 75.06388049142056 37.138928749330105 42.55624461719478 0 0 0
183 1 9 -1 76.05546209655944 39.235369773395526 39.59384273002087 0 0 0
178 1 3 0 76.02112160151331 36.90252470197768 40.01228958098779 0 0 0
180 1 6 0 76.55706238516512 40.18510245551843 39.30181214704169 0 0 0
185 1 12 -1 76.23734153085162 37.32655878690743 39.84300724162236 0 0 0
2147 1797 24 0 81.22312523666993 39.37619007127153 39.366195310460874 0 0 0
172 7 17 36 78.94033561046521 38.23793886581687 36.913864167628944 0 0 0
181 1 8 0 76.84920149131962 41.94275011641171 36.97408391887265 0 0 0
182 1 3 0 76.80169372931357 41.5548707657169 36.586793977921324 0 0 0
184 1 3 0 75.01813688719199 38.94424735859939 36.14967015943874 0 0 0
1893 1543 24 0 78.27996852964007 43.1990055349801 41.51909891934091 0 0 0
3221 2871 24 0 89.64316963765157 42.220055653296065 36.60340304568408 0 -3 0
889 539 24 0 85.02459264396994 42.21586917749994 37.959816661882286 0 -4 0
1666 1316 24 0 85.16089157999149 37.58588055478695 41.48325933564733 0 -3 0
2666 2316 24 0 84.88915206981112 37.461628806042754 36.142555409373834 0 0 0
3233 2883 24 0 87.48744657218826 42.10791188036504 42.86291339791335 0 -1 0
5421 0 24 0 90.33783953732176 38.13456162098633 39.289012134377685 0 0 0
1589 1239 24 0 95.88627266200817 37.22062411316132 39.91246999508077 0 -7 0
2471 2121 24 0 93.45958515339738 41.80423896853765 40.44545581470702 0 -4 0
858 508 24 0 95.30055439758824 40.35627041432617 36.396921553033565 0 -4 0
6059 0 24 0 98.70703708998249 41.63418346292829 40.531319615685234 0 0 0
3639 0 24 0 102.52282695860146 38.88110903166973 39.20818130091749 0 -9 0
4487 0 24 0 100.05947841962488 37.36390668827344 43.13278491739538 0 -9 0
4674 0 24 0 105.42661502595516 42.754887750932475 36.93366804635814 0 -9 0
818 468 24 0 108.09150191517638 39.214844520313605 39.818483631386236 0 -8 0
3232 2882 24 0 112.61199711608475 39.570268516626825 42.663255395219295 0 -7 0
2133 1783 24 0 61.250393817095464 44.68377951315489 39.53820877669631 0 0 0
234 9 3 0 66.43467755674233 45.37532525744754 39.26740926037318 0 0 0
237 1 8 0 66.06375817904204 46.085561420777054 39.68120238332165 0 0 0
2020 1670 24 0 63.36416340240794 49.8398846771121 40.48625415552923 0 0 0
239 1 8 0 67.28371849891742 46.43492913045939 38.1470678840812 0 0 0
366 1 10 1 62.68723354439378 47.98337534694485 36.50518596199545 0 0 0
2057 1707 24 0 67.81805752686559 49.60304269540205 42.97115062541004 0 0 0
236 1 14 0 68.0427600815286 47.97354955991268 38.09634483559907 0 0 0
230 1 3 0 68.42870695006424 43.48132516001201 36.75872823366149 0 0 0
1732 1382 24 0 71.72080680201132 47.62299999725353 40.766200924619945 0 -2 0
1934 1584 24 0 76.33468849619236 46.61810112813268 38.5162683700402 0 0 0
1547 1197 24 0 82.22883608987912 50.36944947590826 38.19158274727405 0 -4 0
1042 692 24 0 80.94615004131958 45.26994904893665 37.07618928770327 0 -4 0
2115 1765 24 0 79.26052621925442 48.02308408832607 42.203180223001695 0 0 0
3202 2852 24 0 82.98094992264335 45.39633406507742 41.49180740567332 0 -4 0
2304 1954 24 0 88.62897815510492 46.208067659499534 40.12377263876925 0 -4 0
3077 2727 24 0 85.82590926639236 47.3710044791946 36.00522847868283 0 -2 0
2508 2158 24 0 93.6000058097592 46.97617026122434 38.56037567244736 0 -6 0
5429 0 24 0 96.3776245003022 45.69802040808789 42.58407445015882 0 0 0
816 466 24 0 91.7250754242522 49.48859470662195 42.8056789610947 0 -8 0
4672 0 24 0 97.69138953266477 44.92178736595753 36.72069665089063 0 -8 0
4546 0 24 0 101.71608113541863 45.93193298747941 39.286320162429945 0 -8 0
5540 0 24 0 110.79285543947515 43.56022899879438 37.686454920609265 0 0 0
6219 0 24 0 105.64239390966027 44.26259305567358 42.09270371964254 0 0 0
4220 0 24 0 107.4054335660814 47.38380924222539 37.51847097921057 0 -10 0
5748 0 24 0 105.30458566273794 49.77080331749157 41.291341821506826 0 0 0
6214 0 24 0 112.56462659535136 48.008574160143375 40.201716301863655 0 0 0
1983 1633 24 0 64.39335642921927 55.7434126133756 41.614298771171185 0 0 0
2425 2075 24 0 61.88473737109182 53.60033666716407 37.21615731903011 0 0 0
2753 2403 24 0 66.67359526895845 52.65662468776793 37.354591370742405 0 1 0
2166 1816 24 0 71.12407804203394 51.556494815709925 37.757579886748886 0 0 0
2992 2642 24 0 69.36696710322443 54.94477994631514 41.34549173688527 0 -4 0
1697 1347 24 0 74.94304122291372 55.91500873478048 40.17335793603709 0 -2 0
441 91 24 0 71.31443967023951 55.80245703065678 36.304048544630916 0 0 0
1787 1437 24 0 75.16492194416476 50.83115792527533 41.512271509994775 0 -4 0
836 486 24 0 79.8305874052984 53.817984797419946 41.015922015119365 0 -4 0
2982 2632 24 0 86.70259217832843 50.86550300095492 41.43872389603923 0 -3 0
3082 2732 24 0 84.50136538955991 55.17074783163625 37.091460842082526 0 -5 0
2248 1898 24 0 89.77362372678816 55.559525741881714 42.216322974507634 0 -7 0
2339 1989 24 0 89.21469853118268 56.23239878429891 36.599560028656164 0 -3 0
3057 2707 24 0 84.15794198058673 54.65616294716924 43.113323623630045 0 -2 0
2237 1887 24 0 90.04157425046563 51.179653243132165 37.65161071162903 0 -4 0
3013 2663 24 0 93.84746300963033 53.56367308374569 39.931960358431326 0 -7 0
3356 0 24 0 96.62143309098101 57.53469234658854 39.808807985947304 0 -9 0
3776 0 24 0 98.10495249326667 50.99167214048872 39.6929091947022 0 -8 0
739 389 24 0 102.62276282986177 50.88560403113062 37.75379053921995 0 -8 0
989 639 24 0 101.56475559211454 55.28514533637287 39.74894264192354 0 -6 0
5423 0 24 0 107.16067646390867 54.33445217542172 39.254271090363346 0 0 0
576 226 24 0 66.71625411151928 57.76893717301877 37.86339941920728 0 0 0
1823 1473 24 0 63.70779860746882 61.986430489827754 39.00801416171721 0 2 0
1910 1560 24 0 67.06161171335432 59.93903496239234 42.12872204630061 0 0 0
569 219 24 0 60.462462429899304 57.69699896901632 39.64669453161359 0 0 0
1936 1586 24 0 71.38390256704471 59.468358908527165 39.80680557316061 0 0 0
1858 1508 24 0 68.41975325509262 62.899316814209435 37.75079013174566 0 0 0
1866 1516 24 0 71.67326433006437 63.861188272781064 41.52718217852365 0 0 0
1094 744 24 0 75.73202224153384 63.058748393998016 38.23763059297615 0 -2 0
2523 2173 24 0 79.33601653600614 58.5904562026306 40.711573058866215 0 -4 0
949 599 24 0 81.14529619596254 63.55150847499083 39.78931317818373 0 -3 0
2333 1983 24 0 76.12194119149879 61.485447727195364 42.744785254156696 0 -2 0
990 640 24 0 80.97931804505653 59.48087456410116 36.23466437607464 0 -2 0
1663 1313 24 0 75.52629723793291 58.50715610735306 36.068512241382905 0 -2 0
2474 2124 24 0 84.92348733212009 59.17009112701372 41.16974982520659 0 -3 0
2512 2162 24 0 85.88365108238057 64.47747720683272 40.47828120142081 0 -6 0
3527 0 24 0 86.2013568626833 60.264597502591805 36.495129671713514 0 -8 0
2298 1948 24 0 91.91012988568704 60.109726434138416 39.62472318191958 0 -8 0
4948 0 24 0 90.56717682206258 64.35386317027907 37.165972574327334 0 -5 0
5965 0 24 0 98.80594322178264 62.41946006449266 39.09426872197169 0 -1 0
4163 0 24 0 103.27368975369795 63.54151186709501 37.293445008078876 0 -10 0
6207 0 24 0 103.24702929885785 59.448181334638015 41.28099438217455 0 0 0
5789 0 24 0 108.1285964340375 61.36688202938326 42.172166832404706 0 0 0
5749 0 24 0 107.81396433091388 61.310910712870054 36.98219900862145 0 0 0
550 200 24 0 65.60305419015216 66.95885489043098 39.24614828255626 0 2 0
2957 2607 24 0 62.72865091425203 71.73954748603752 37.48446224789072 0 -2 0
1313 963 24 0 64.06660806404734 70.52455348065176 42.58399996260621 0 2 0
2842 2492 24 0 60.607279204386245 66.02820797597286 40.118043409768404 0 1 0
1332 982 24 0 71.09799168489675 67.95072375182576 37.473437972812526 0 0 0
1740 1390 24 0 74.0364091937025 70.3105144857048 41.268101908349166 0 -1 0
2338 1988 24 0 68.96562090839853 69.0856178829414 42.58493283443768 0 -2 0
1612 1262 24 0 67.82549867682258 71.465974822967 37.486699901413985 0 -2 0
2359 2009 24 0 79.72634791087047 66.68439016239573 36.041227439851795 0 -4 0
2257 1907 24 0 77.58965131799658 66.65699934546578 41.66166591181206 0 -3 0
1669 1319 24 0 76.40994930757758 70.22308996060123 37.09573573918589 0 -2 0
1061 711 24 0 81.61970643325 71.36545772349047 37.43133288567322 0 -6 0
2979 2629 24 0 78.40861357735872 71.86870442921786 41.56545176699675 0 -2 0
3135 2785 24 0 82.97136946507048 68.37149841685314 41.109626151600345 0 -6 0
4989 0 24 0 87.70396462536297 68.676329775829 37.54052005211895 0 -5 0
1027 677 24 0 88.18824454271414 68.72289516635982 42.76892670565164 0 -5 0
4122 0 24 0 95.76269894490274 66.62448695165398 36.94469130998349 0 -9 0
5091 0 24 0 92.3605007945947 67.67419614757716 40.405408439668804 0 -4 0
2353 2003 24 0 97.23872159414356 71.405571116281 39.48294185856062 0 -9 0
5359 0 24 0 100.4541308518973 67.46078570090022 37.00351029429827 0 -1 0
2280 1930 24 0 107.97841329152536 65.7354052354943 40.55327207744445 0 -9 0
5957 0 24 0 105.72378893198344 67.93127606342837 36.80765168118951 0 -1 0
4230 0 24 0 105.67573954019934 69.22157402528705 42.404287327201075 0 -10 0
5507 0 24 0 112.60010936097488 66.13492750272682 42.61826075103544 0 0 0
2068 1718 24 0 63.97448802667326 39.34814560152636 46.20124693125553 0 0 0
2098 1748 24 0 60.883104463592105 38.97024313449126 50.10095055638902 0 0 0
2189 1839 24 0 73.50255695100753 41.02893113605378 43.64683577813315 0 0 0
2042 1692 24 0 73.15119373896823 37.206793817816916 46.56315343946136 0 0 0
218 1 10 1 68.46308373093436 37.456791576949435 44.307396417293525 0 0 0
1888 1538 24 0 69.87390594041675 40.6632092165166 47.24220434965616 0 0 0
216 1 3 0 68.56238606361897 36.95363936948279 43.791912664060135 0 0 0
2465 2115 24 0 68.17085349068567 36.303794242064235 48.909869610253615 0 0 0
1881 1531 24 0 77.94070855991781 39.048313058467265 44.53747461386434 0 -1 0
2903 2553 24 0 79.8532869788627 39.49740406127233 49.597106009103385 0 0 0
2036 1686 24 0 75.34428238211837 42.47221071532008 47.94655204973733 0 0 0
2553 2203 24 0 82.65235868600737 41.443816865983216 44.40785764466905 0 -3 0
2251 1901 24 0 85.12720614257469 37.42259884323057 46.4117692026584 0 -1 0
2531 2181 24 0 89.30255109443364 36.359914050588415 48.788663295393235 0 -4 0
2352 2002 24 0 85.3904185604628 41.84983404263626 49.891240229374155 0 -4 0
2981 2631 24 0 89.52399744425236 42.232690299060074 47.55876977541732 0 -4 0
2243 1893 24 0 95.38396449223701 36.126335020766895 45.396621933284685 0 -4 0
2234 1884 24 0 91.78835312277349 39.11049716441532 44.892181450103074 0 -7 0
4225 0 24 0 94.19785508663745 39.757354161253026 49.260131157202224 0 -8 0
2306 1956 24 0 97.01976793435024 40.80747788506414 45.14219855138593 0 -7 0
5588 0 24 0 103.01029296311707 40.641255976745285 46.638632689737314 0 0 0
3127 2777 24 0 99.03567467175273 42.60730874438728 50.01628752168644 0 -7 0
2999 2649 24 0 98.55148859500605 36.93606364229891 49.86614556604761 0 -5 0
5953 0 24 0 105.07309314194875 37.099005883846324 43.33019070323234 0 0 0
4661 0 24 0 108.39051645520051 40.680903401695126 45.071944093332036 0 -9 0
5720 0 24 0 111.88405706681422 42.014873701306996 48.864213085293734 0 0 0
3134 2784 24 0 107.06026309716742 37.18470961028568 48.36212158807732 0 -7 0
6024 0 24 0 112.5842015970132 36.887168217316585 47.45956611904585 0 0 0
2491 2141 24 0 60.82395932849398 49.261618905169385 48.68378250262135 0 0 0
1856 1506 24 0 61.32727730432704 43.94515864085847 48.37505578705399 0 0 0
2538 2188 24 0 63.60065552065798 43.76051358444106 43.64137571697475 0 0 0
1870 1520 24 0 65.2489116762651 47.69701981912184 46.272663353778405 0 0 0
2503 2153 24 0 60.07670713269307 47.484501020844995 44.03399117232536 0 0 0
1901 1551 24 0 67.92665852283763 44.292723101472085 49.72494792719955 0 0 0
2086 1736 24 0 70.07851123130885 45.521222149652736 45.1155138956379 0 0 0
1909 1559 24 0 72.6449854067781 46.25631969528468 49.70299561900962 0 0 0
2656 2306 24 0 68.86105806728433 49.33630348865024 49.93021912583383 0 0 0
2375 2025 24 0 75.15233127013161 45.877323258680086 44.38061498631685 0 -1 0
3022 2672 24 0 76.75750260759776 48.51946477844298 48.80285645350999 0 -3 0
2390 2040 24 0 80.3765616508087 45.164118417529885 46.661729388455505 0 -4 0
2448 2098 24 0 82.7501398518893 50.29155943691064 44.737996650701064 0 -3 0
2307 1957 24 0 86.61097342517353 47.35675589102976 45.06508076162839 0 -4 0
3235 2885 24 0 90.4523162734124 48.88240702700978 47.52422644188545 0 -4 0
2490 2140 24 0 91.5726010312059 44.872494680544875 43.48856493600638 0 -3 0
3146 2796 24 0 94.05679351089721 44.76552441976972 47.921176187735306 0 -6 0
5354 0 24 0 97.91133305554345 47.568329934981776 47.51584439055872 0 0 0
4444 0 24 0 100.88381233235145 44.22601165242502 44.4057822440402 0 -9 0
5122 0 24 0 100.83157031296668 49.809224757194265 44.088839837106 0 -3 0
5273 0 24 0 102.31028231032136 46.994150542511015 48.871528283073644 0 -1 0
5966 0 24 0 105.90736633714684 47.615012113059606 45.79002734020816 0 0 0
3192 2842 24 0 110.22056526551397 45.03525224554776 44.32836298633214 0 -8 0
6057 0 24 0 106.2419840661707 43.51141951836945 48.89491912331218 0 0 0
4047 0 24 0 112.26024020361292 48.7099187837287 48.738700938165096 0 -9 0
2102 1752 24 0 62.658262692280296 51.97140424747999 44.96343779795194 0 0 0
2757 2407 24 0 62.92473747119717 53.48028499976621 50.07304905911579 0 0 0
1865 1515 24 0 72.82638201639976 51.0047145377357 45.85382378198932 0 0 0
2185 1835 24 0 68.06576658900552 53.5409637186469 47.079048521334286 0 0 0
2524 2174 24 0 70.62728004107558 57.348818229353355 49.02047044232507 0 -4 0
3259 2909 24 0 73.36834502791136 56.836771702468 44.89209467295297 0 -3 0
3170 2820 24 0 74.77441509928798 55.00489377283612 49.73837877563131 0 -2 0
2834 2484 24 0 81.61886889522657 50.47470813111372 49.35591405275574 0 0 0
2396 2046 24 0 77.56328774840968 52.80276044934033 46.01261746989263 0 -3 0
5255 0 24 0 82.39604973993004 55.18161604691843 49.44808331612922 0 -1 0
2449 2099 24 0 79.42812171598783 57.07303439693658 45.76663857884636 0 -3 0
3043 2693 24 0 86.40203332500259 52.986831057081396 47.00088340963649 0 -5 0
2245 1895 24 0 96.03688031304044 52.51409232683601 45.068451788091636 0 -7 0
3668 0 24 0 91.47865266488039 53.27386801354418 47.02014162839168 0 -10 0
5776 0 24 0 95.39684508539055 54.224058707197884 50.05734757788509 0 0 0
3535 0 24 0 94.2080085132825 57.28946646603265 44.76240367335651 0 -9 0
3112 2762 24 0 99.7589464489267 52.034215978552595 48.97258117363801 0 -6 0
5420 0 24 0 99.50021551507152 56.291159313461115 44.59430991278531 0 -1 0
2436 2086 24 0 104.75157081680646 54.78737619344823 44.79005495980541 0 -8 0
3518 0 24 0 105.22529232303135 53.522376896753514 49.61245405914948 0 -8 0
5501 0 24 0 110.01050337426894 53.02793344800699 46.37001945460541 0 0 0
1874 1524 24 0 65.47975629439804 58.28645267140672 46.78266438858453 0 0 0
1972 1622 24 0 60.727632790614386 58.52130374839965 48.22157743358067 0 1 0
2664 2314 24 0 61.507437896765396 61.14265740886512 43.76657771007001 0 1 0
3206 2856 24 0 70.38683148439421 60.50100459552976 45.34775966101438 0 -3 0
2213 1863 24 0 73.16445315245217 62.14385407146562 48.89481996587545 0 -3 0
2458 2108 24 0 81.72469638716953 61.81634990998942 44.39547918189701 0 -3 0
2315 1965 24 0 77.41337369604926 58.84791758093744 49.69572600153784 0 -3 0
3164 2814 24 0 78.48323848070983 63.508470724502416 47.8391844475686 0 -7 0
2299 1949 24 0 82.57342923308467 59.944785628142114 49.475581573634976 0 -4 0
4933 0 24 0 86.7214150815086 57.968294933710006 46.20600514819417 0 -6 0
2947 2597 24 0 87.00484268368899 63.209227278054506 46.42621039447772 0 -5 0
3664 0 24 0 91.1978598958413 63.69487730291408 43.25656022236339 0 -9 0
3016 2666 24 0 91.93766550710356 62.95382982536232 48.020460864523116 0 -5 0
3747 0 24 0 96.46823335487451 62.89585319618034 49.99773448393125 0 -9 0
2921 2571 24 0 92.38351664290383 57.991958403974955 49.50726714393253 0 -5 0
4979 0 24 0 104.18292511573144 63.91616415311769 43.30575458908535 0 -5 0
4161 0 24 0 97.7650056280375 58.59795902621861 48.748740065046015 0 -9 0
2317 1967 24 0 102.76274749846048 59.13062852034419 46.59670128036259 0 -8 0
3953 0 24 0 97.61779355063479 60.84980727727857 43.92541997143753 0 -10 0
4093 0 24 0 100.00892382469168 64.44435367347485 46.42576658219895 0 -8 0
2494 2144 24 0 104.40974604735702 63.34314714871788 48.31846565946906 0 -8 0
2912 2562 24 0 107.9892347129693 60.24627418602169 47.48118676162552 0 -7 0
2897 2547 24 0 65.91935160146681 64.80441932144052 43.674461049196715 0 1 0
2039 1689 24 0 64.77158008141846 65.11475430484705 48.353212099664596 0 0 0
3211 2861 24 0 67.32644100249782 69.9414448314424 47.100742736400925 0 -2 0
2820 2470 24 0 62.54475062106038 70.78165459713827 48.0920635700195 0 3 0
2013 1663 24 0 61.04498743429308 67.01791141368447 45.246419655112945 0 2 0
2240 1890 24 0 70.44631822908549 66.7123158561515 47.94178560556321 0 -3 0
2972 2622 24 0 74.29215438783804 65.53691652963272 45.122623655989294 0 -2 0
3213 2863 24 0 72.95445044022632 70.25039875777126 46.243231164004094 0 -2 0
2282 1932 24 0 78.69452255767759 68.92670583388939 46.11176586346879 0 -3 0
2326 1976 24 0 75.03585041815138 66.79638782365025 49.7940263618212 0 -3 0
3126 2776 24 0 83.56915761251378 67.24969838968737 45.72056218452097 0 -2 0
4170 0 24 0 88.02045620303815 71.83345239146315 46.98661923032979 0 -8 0
3088 2738 24 0 86.87731993236294 68.27762824532306 50.03853743473959 0 -8 0
3231 2881 24 0 95.93204628117184 65.47070562031695 43.80606313605492 0 -5 0
2279 1929 24 0 90.70838754636029 67.6613794756267 47.163173695845124 0 -7 0
2485 2135 24 0 96.89828658802358 68.16397968563403 49.07529089375131 0 -8 0
5752 0 24 0 92.76986607734109 71.81230320863331 48.16441814336786 0 -1 0
3971 0 24 0 99.93079326470891 68.98306635511291 43.48287417745136 0 -9 0
5472 0 24 0 104.55676119746013 68.10296583928884 47.21008047601123 0 -1 0
6253 0 24 0 103.02545587356707 71.83305511203665 50.2610249331604 0 -1 0
3547 0 24 0 109.11060050213325 65.62742535040327 47.16702036361232 0 -10 0
5271 0 24 0 112.12816094937422 70.73751084562379 45.00670532330823 0 -1 0
4647 0 24 0 111.68588264471585 70.54284636360553 50.1103901711266 0 -9 0
2513 2163 24 0 66.15652019836857 39.87451341276204 52.021218458008235 0 0 0
2337 1987 24 0 62.35659913137666 42.60223837296893 54.30566732370148 0 0 0
2131 1781 24 0 60.71998900010693 37.35427786113581 54.933694025065314 0 0 0
2148 1798 24 0 70.95503824293448 41.24207373351783 52.30256498645015 0 0 0
2544 2194 24 0 73.78725032228222 40.60387870911648 56.63086124727021 0 -3 0
1933 1583 24 0 74.95108294866426 37.95463643495268 50.89235953020514 0 0 0
2932 2582 24 0 69.33532983481794 39.5564693552181 57.37960453630703 0 -1 0
2648 2298 24 0 70.5607275857835 36.11177651454587 53.176355460760846 0 0 0
2714 2364 24 0 80.14131536253277 38.79912743217474 54.26096391053274 0 0 0
2059 1709 24 0 76.82730829077376 42.03486415503408 52.70770541225401 0 0 0
2462 2112 24 0 85.35585834756795 38.92198486613381 53.85494429466526 0 -4 0
3122 2772 24 0 90.15458530276351 40.414697750331804 52.85081107181072 0 -3 0
1742 1392 24 0 96.27493253390004 39.02837593684496 53.970964347877164 0 -4 0
2430 2080 24 0 100.45323029791076 36.96087595361827 55.15255384661895 0 -7 0
3105 2755 24 0 99.46505008102773 42.70138457451529 55.030507565076505 0 -6 0
2410 2060 24 0 102.89102137539788 39.92803133547043 51.55648308328102 0 -7 0
2546 2196 24 0 104.03674931255044 40.347847850492236 56.94655182086285 0 -7 0
5865 0 24 0 105.40066339779985 36.21630009267096 53.417446217886486 0 -1 0
2336 1986 24 0 108.54250595008635 39.972131464546536 52.23431903982241 0 -6 0
6162 0 24 0 110.37013265848256 36.52694366747165 57.21197475981178 0 0 0
3377 0 24 0 113.51252737741788 37.17746072166067 52.362395557486785 0 -8 0
2246 1896 24 0 63.83179130974746 46.69863310483263 51.60247794881306 0 0 0
2435 2085 24 0 61.326587782024156 47.18448325238523 56.17101504764281 0 -1 0
2202 1852 24 0 67.26094221249733 44.10058118329692 54.94201059291245 0 -1 0
3191 2841 24 0 73.35608972225198 45.557208899584516 55.58734318839313 0 -1 0
2182 1832 24 0 69.8696812999146 49.6875022895444 55.22814441975166 0 0 0
2095 1745 24 0 75.8450352298856 49.88157265967428 57.17246176997151 0 0 0
3243 2893 24 0 78.41108636600723 43.54920005007495 57.20695190379534 0 -3 0
3079 2729 24 0 77.32735920358664 47.07311420395931 53.586684423163476 0 -1 0
2413 2063 24 0 80.92593603266174 43.966877607656215 52.49459227472704 0 -2 0
2371 2021 24 0 85.56929738063987 47.66226684284695 50.66058341644244 0 -4 0
2330 1980 24 0 83.00792816625209 46.7039717132315 56.77904417535042 0 -3 0
2925 2575 24 0 86.62661276940487 43.97174568313826 54.586883640779845 0 -2 0
2312 1962 24 0 87.37870831723433 48.991889744391216 56.07197853196814 0 -3 0
3031 2681 24 0 90.31924325800689 46.15469419851595 51.607187135864464 0 -7 0
4458 0 24 0 94.31889896274062 48.61366970049231 51.000128800812476 0 -8 0
3162 2812 24 0 94.82840934521273 43.621512971772 52.547818360077535 0 -5 0
2388 2038 24 0 96.271610172065 46.066202531230616 56.63555907118854 0 -8 0
3137 2787 24 0 91.38422870007106 45.01278001546991 56.680720703354964 0 -6 0
2417 2067 24 0 93.19482237192813 49.94470596283886 55.94988019340963 0 -7 0
5671 0 24 0 103.90140518274076 44.9287718255472 53.341414600428784 0 0 0
3138 2788 24 0 98.9363332200892 47.08279121282777 52.089461821346504 0 -6 0
4975 0 24 0 101.07212739526022 48.03699825696461 56.6869119815495 0 -5 0
6223 0 24 0 107.68055864564079 48.45993921247573 51.60604813053528 0 0 0
5872 0 24 0 108.73163515695161 44.86268328527077 54.4467122448423 0 0 0
5480 0 24 0 107.02882428031627 49.43572184575233 56.26744212781841 0 -1 0
6211 0 24 0 115.59115337543984 44.7414692677874 55.744376141618986 0 0 0
3147 2797 24 0 65.42590821584692 51.202504758485794 53.93531600052213 0 -1 0
3185 2835 24 0 63.95294788258606 55.93500559252226 56.83125903264187 0 -3 0
2285 1935 24 0 66.25921411153975 56.42307322837074 51.80974908092933 0 0 0
3010 2660 24 0 74.15607163281734 50.423935248218086 52.576644380340184 0 -2 0
2382 2032 24 0 70.8225823940036 53.886474162800106 52.644787212836114 0 -3 0
2432 2082 24 0 74.71710608179292 55.25342120099973 54.866868111552854 0 -3 0
3257 2907 24 0 69.54390729094385 57.55867613381354 55.99045417814198 0 -1 0
2831 2481 24 0 80.54194000927085 50.811654465994344 54.91461744700713 0 0 0
2221 1871 24 0 79.39229104502583 56.05359321921646 53.497723461871914 0 -3 0
3081 2731 24 0 85.0630749081124 52.44304163282664 52.93335416524832 0 -3 0
2931 2581 24 0 87.5561609628082 56.573489685486685 51.10217576867021 0 -5 0
2387 2037 24 0 83.23346332501052 54.44418930888339 57.13051646167712 0 -7 0
4445 0 24 0 88.79080448374623 53.678219279297586 57.29686238310683 0 -10 0
3229 2879 24 0 90.10338906151564 52.1324105731805 51.48451052529072 0 -7 0
2985 2635 24 0 94.47056539319546 55.59977089268574 55.81768010610676 0 -5 0
2231 1881 24 0 98.12315143802797 52.07001973157203 54.697400505164595 0 -7 0
4031 0 24 0 102.71222155717697 50.746701738081555 53.19782019378539 0 -9 0
3240 2890 24 0 101.06795898601649 55.748045685364495 51.54445069587925 0 -7 0
4927 0 24 0 110.25282459678897 53.166872595517184 52.89177082108619 0 -6 0
6144 0 24 0 106.01973778806683 54.492778200827885 54.92555420919422 0 0 0
6238 0 24 0 110.3775953582946 57.55942086731726 54.58856255951549 0 0 0
5866 0 24 0 115.05196499587626 56.10838735104118 55.04715970771109 0 -1 0
2032 1682 24 0 62.74977395005248 61.19334689925507 53.38922514955917 0 0 0
2489 2139 24 0 67.57494720223681 61.59488105019821 50.47657279213319 0 -3 0
2407 2057 24 0 73.40821779492728 60.09756476791871 53.52100133928974 0 -3 0
3251 2901 24 0 70.50887339870827 62.91465106242851 56.700541014840965 0 -2 0
1407 1057 24 0 78.88903115820858 62.7569823027039 52.709368506362345 0 2 0
2233 1883 24 0 78.04301155728102 58.90980729135628 57.380479083975466 0 -3 0
3093 2743 24 0 82.2501070049378 59.700219679213745 55.363861094956484 0 -3 0
2481 2131 24 0 88.56331743333898 61.23185001480054 51.33074715600988 0 -6 0
2510 2160 24 0 84.23604890199898 64.16196391258607 52.366180883123334 0 -3 0
3069 2719 24 0 87.00873195119745 58.51539114222254 56.48737395031225 0 -5 0
3173 2823 24 0 96.87257423831922 59.26335194195798 53.9897952629565 0 -8 0
5198 0 24 0 92.48798016862334 61.782667892132686 54.56598121405375 0 -2 0
4562 0 24 0 101.33367126134999 57.971243629743036 55.930520373466614 0 -7 0
3620 0 24 0 100.98642299866673 61.0139942115256 51.62873183689343 0 -9 0
5012 0 24 0 102.37169061771873 62.877312726884284 56.3098841585612 0 -5 0
2913 2563 24 0 110.44442302092492 62.035875475970094 51.71711591178323 0 -8 0
3622 0 24 0 105.30547195471048 58.06762373885702 51.49830309496054 0 -9 0
4854 0 24 0 107.23458333869124 63.33232998365893 55.30325667052671 0 -10 0
2378 2028 24 0 60.161314980494666 65.00709386290227 55.593976265346534 0 -2 0
2692 2342 24 0 65.07864091250784 65.13828599595476 54.89872667023356 0 0 0
2904 2554 24 0 62.10607960709937 69.32235867388954 53.52960187573581 0 1 0
1949 1599 24 0 66.68495411547288 69.06696416004516 52.07826191025578 0 0 0
2993 2643 24 0 73.90359047187567 71.6523738950024 55.931868478608024 0 -2 0
2252 1902 24 0 70.72002671768372 66.0175784752359 52.621554175373234 0 -3 0
2973 2623 24 0 71.89793518198883 71.2280383710984 51.42072650633639 0 -2 0
2917 2567 24 0 69.13482520036871 68.78326464426644 56.22657468028161 0 -2 0
3250 2900 24 0 74.81108085444377 66.14574256626389 55.611408239598035 0 -3 0
2420 2070 24 0 77.31549137996764 71.77761979281891 51.727040530086235 0 -3 0
2295 1945 24 0 81.45350165590385 67.9254706944341 50.580374555634464 0 -5 0
2505 2155 24 0 79.09916092169964 68.863266181335 55.16764236343274 0 -5 0
4179 0 24 0 89.2126566778387 65.25179208665624 55.33606764273765 0 -9 0
3132 2782 24 0 84.64125245380393 68.58832481678044 55.17097976261293 0 -5 0
5179 0 24 0 90.49001375590727 70.95127857812214 52.81826281694514 0 -2 0
2467 2117 24 0 92.7665427321487 66.69707444611977 51.7778084756058 0 -8 0
3234 2884 24 0 95.59213380338147 69.24490047364026 56.1545045590372 0 -7 0
3100 2750 24 0 97.05601953595868 65.26546380736087 53.88303903604268 0 -8 0
4632 0 24 0 102.86201203830255 66.42187365215104 52.329902291952386 0 -10 0
5195 0 24 0 99.13665625359471 70.29473262351904 53.229839673368495 0 -2 0
781 431 24 0 104.43611328804482 69.86396272336367 55.43314833410973 0 -7 -1
2376 2026 24 0 107.67851527765713 67.42214083535434 51.64973519080198 0 -7 0
3728 0 24 0 111.65547387248199 65.95410531095358 56.91378861571267 0 -9 0
2053 1703 24 0 64.08424568443397 37.02354274243403 58.49347762292702 0 0 0
1206 856 24 0 64.75336392294508 42.975790719381656 59.278222956567696 0 0 -1
1618 1268 24 0 63.03123411785214 36.97507630081039 63.697599614321035 0 -1 -1
2129 1779 24 0 62.714200264497734 41.88876206960043 63.58930977391388 0 0 0
2207 1857 24 0 72.50259484729293 36.72629579008424 60.686919836164726 0 -1 0
1064 714 24 0 67.76376938858351 39.84037838380555 62.624253307876046 0 -2 -1
2937 2587 24 0 73.93393094159106 42.24958716260142 61.425365095620975 0 -3 0
2348 1998 24 0 76.9721515964479 38.76039521741174 59.62472800751051 0 -4 0
3219 2869 24 0 83.0772180365059 36.870626681438566 63.54808406732087 0 -3 0
2472 2122 24 0 82.9657340461743 41.44045570720684 57.90763913198209 0 -4 0
2459 2109 24 0 88.28816766187121 40.727919177076046 57.79912685366075 0 -7 0
2198 1848 24 0 86.11016283606263 36.418931026706794 59.59311839607683 0 -3 0
2543 2193 24 0 85.1605562416482 41.33072375901494 61.92155819828924 0 -4 0
815 465 24 0 89.03769317594767 38.35210624009528 63.73490197748024 0 -4 -1
3085 2735 24 0 96.04842726417455 36.27308783395434 58.31303744805608 0 -6 0
817 467 24 0 91.26317883073371 42.64930847338735 61.62961816190689 0 -5 0
5027 0 24 0 91.40483272701505 37.24927055145998 59.22516241580239 0 -4 0
3027 2677 24 0 94.89464404704154 41.43694809657909 58.49212212488816 0 -3 0
2313 1963 24 0 94.51001124700588 37.7885306575945 62.92905533214402 0 -6 0
2275 1925 24 0 100.78210067755349 37.06435858311847 60.35305068075242 0 -6 0
2374 2024 24 0 99.73351559931139 42.05116185598589 60.685476898471 0 -7 0
4791 0 24 0 103.41938765042029 42.82035255174354 64.26852466940814 0 -10 -1
3623 0 24 0 99.24365390947008 38.26837898984059 64.6387824251622 0 -9 0
4754 0 24 0 108.2602927102559 41.397388142537174 59.16855182691225 0 -9 0
5826 0 24 0 105.73131862870014 37.523194064918336 62.02841717921355 0 0 -1
2976 2626 24 0 110.44727497165209 37.8305597086899 61.81443779339366 0 -7 0
3767 0 24 0 112.31326086565542 42.43529588464457 62.63933071157505 0 -8 0
5560 0 24 0 113.18669294249902 40.37817360334012 57.68489935007265 0 0 0
2986 2636 24 0 66.01786061446047 47.91048978043398 58.115122489406254 0 -3 0
3052 2702 24 0 63.73077470071693 47.91308939281021 63.366158572881055 0 -3 0
2241 1891 24 0 69.64795356272207 44.09457879274095 59.69970731701785 0 -4 0
3054 2704 24 0 71.62826171867722 49.29743491623993 59.880996198246656 0 -3 0
2504 2154 24 0 70.14033848057149 45.97978443593474 64.62243459312567 0 -1 0
3201 2851 24 0 75.9506833510783 46.57689297559476 60.3330682082795 0 -3 0
2537 2187 24 0 79.16382298490669 43.69187843384181 62.715928332358004 0 -3 0
2978 2628 24 0 80.29300133639805 48.85760942199777 60.29294437494628 0 -3 0
5037 0 24 0 87.42858322528033 45.44129587852823 59.38281147412174 0 -4 0
3036 2686 24 0 85.48414125118667 49.83395628581037 60.75359242839584 0 -5 0
2239 1889 24 0 84.13802559008163 46.33060113217801 64.15103210327577 0 -3 0
5180 0 24 0 88.8896152978865 47.59946660373228 64.31516573325227 0 -2 0
3044 2694 24 0 94.25785609003752 46.53699131113237 61.21094351892333 0 -3 0
2507 2157 24 0 97.31100798950901 49.88470625713367 59.37414685720882 0 -7 0
3141 2791 24 0 91.07481737248308 50.29534164451777 60.136110477542886 0 -5 0
3781 0 24 0 104.87475047274641 45.15472561174513 58.750251874639595 0 -9 0
4480 0 24 0 104.61279920187421 49.674069740374954 61.14967452993142 0 -10 -1
5489 0 24 0 100.78537644974142 46.5243385408378 61.400581638282944 0 -1 0
5682 0 24 0 107.59836207188488 45.98256040496604 63.134686084763395 0 0 0
2211 1861 24 0 111.85273622109017 46.6099151543953 58.71722541654802 0 -8 0
4509 0 24 0 115.91047883642868 46.8541423895993 61.11308460137971 0 -9 -1
2749 2399 24 0 62.07864292836764 51.80285772906983 58.0838968968037 0 0 0
2329 1979 24 0 63.63541399288158 53.202561155389546 62.72794563070068 0 -3 0
2381 2031 24 0 61.81176679098213 57.3767836636898 61.35641067978136 0 -1 0
2478 2128 24 0 67.41396489275627 53.29875252451377 59.42811451889208 0 -1 0
2324 1974 24 0 72.51160652067537 54.51633533581771 59.03739648773861 0 -3 0
2104 1754 24 0 72.22207285778181 53.39073753627039 63.729029179626124 0 0 0
769 419 24 0 68.09306987512548 50.90894898560835 63.54914450395577 0 -2 -1
3245 2895 24 0 78.01148324341094 54.06402888406501 58.728357146340045 0 -1 0
2962 2612 24 0 77.05731371923599 51.95963644349233 62.951376518636174 0 -4 0
1072 722 24 0 82.12319998495147 53.168642062968274 62.425510172427636 0 -3 -1
4333 0 24 0 86.80248602444223 54.676510288942254 61.194369981992935 0 -8 0
899 549 24 0 89.996504878377 52.54732983016654 64.43733939784764 0 -8 -1
5573 0 24 0 91.87764799144693 55.40675374203944 60.62948220454193 0 0 0
1055 705 24 0 96.90740390585773 55.03070975436344 60.00024059616454 0 -7 -1
4164 0 24 0 94.95468077144447 52.09646717042356 63.48019939622814 0 -8 0
1039 689 24 0 102.1516912836719 53.05191596056433 57.76878910753483 0 -8 -1
4513 0 24 0 100.505084757378 52.049961310442754 62.71219548916998 0 -9 0
6103 0 24 0 101.57413629737079 57.130415695882355 61.353716904441924 0 -1 0
3404 0 24 0 105.85431722594315 54.20842380129926 61.13851546300873 0 -9 0
4019 0 24 0 109.82222181172958 50.95368082535043 62.193005721545546 0 -9 0
5095 0 24 0 110.70891925340315 53.28861635576219 58.024223278095064 0 -4 0
6040 0 24 0 108.50964054874092 56.31547231412199 64.68790875256848 0 0 0
5714 0 24 0 114.77382363325343 54.08754945386817 60.70531963676378 0 -1 0
2750 2400 24 0 65.72154005497005 60.46431664070575 58.41198704643143 0 0 0
1838 1488 24 0 65.47575446369767 61.61918961051797 63.95468356495755 0 0 0
2097 1747 24 0 62.784973957339126 64.5446120725274 60.26593172590748 0 0 0
3096 2746 24 0 69.0264807018633 57.75744626100267 60.841226958544546 0 -1 0
2210 1860 24 0 73.66231033535566 59.07657002151508 59.48984881280292 0 -3 0
417 67 24 0 69.26219715284775 62.95544180866386 61.55648741877845 0 0 -1
2437 2087 24 0 73.15161526745621 60.76101290201078 64.64271382260524 0 -2 0
3012 2662 24 0 77.37399288149852 58.72378232859862 62.49193128962009 0 -3 0
3119 2769 24 0 76.07182465025912 63.831758775130965 61.17385630279816 0 -3 0
2956 2606 24 0 82.31268448613612 57.74601408879855 60.22212342006935 0 -3 0
2363 2013 24 0 84.60737177282034 64.6123296130494 58.5867947657302 0 -7 0
3255 2905 24 0 83.5780687221996 61.64952305000942 62.51419217512948 0 -7 0
4540 0 24 0 89.9270343733043 62.025904546033175 59.32630630547186 0 -9 0
2470 2120 24 0 88.33703121976424 59.53341722129126 64.149399668847 0 -7 0
2196 1846 24 0 94.38041222441704 59.76143098031189 62.00134953346898 0 -8 0
3055 2705 24 0 91.85348281727516 63.62584026684105 63.474359656058674 0 -5 0
6036 0 24 0 97.83974110704153 61.133598125632325 58.74604100274969 0 -1 0
6141 0 24 0 100.74358712979358 63.5386799549233 62.198639505615205 0 -1 -1
5688 0 24 0 104.61320678792417 60.548328385269905 63.64948474948853 0 -1 0
5231 0 24 0 110.33134396284353 57.96451691502934 59.977014462157314 0 -1 0
4325 0 24 0 106.08846007781635 59.080455762465746 57.737461601506865 0 -9 0
4564 0 24 0 105.4857389443957 63.87501591404398 59.9408508252705 0 -10 0
3066 2716 24 0 62.66473388308768 68.98479092886745 62.76326440253257 0 0 0
2751 2401 24 0 64.11800230206492 69.98835093863036 57.98969135397541 0 -1 0
3238 2888 24 0 67.110450500278 67.49196299574658 61.867056083164066 0 -2 0
3176 2826 24 0 72.19844899569976 66.3424113954596 60.17373381032867 0 -1 0
3047 2697 24 0 70.64248896492852 70.92998842638903 60.25916733540784 0 -2 0
1048 698 24 0 71.95979893916024 69.56076138678705 64.65415701499873 0 -1 -1
3254 2904 24 0 79.51641749906999 64.96312988497293 57.708203609949294 0 -2 0
2942 2592 24 0 76.72175338915433 68.56232718308407 59.65146803538782 0 -3 0
2453 2103 24 0 81.03560034186977 66.15202919830068 62.31837269030966 0 -6 0
3150 2800 24 0 76.0332563582826 67.4305111198689 64.45367020305984 0 -4 0
2477 2127 24 0 80.74199019689945 71.04585125636942 64.40972316821214 0 -5 0
3153 2803 24 0 83.81574343411036 69.4002392321951 60.58405459179798 0 -6 0
2389 2039 24 0 89.08191266912169 69.27109616926893 58.51921427287948 0 -9 0
3103 2753 24 0 87.4166290113188 65.9896378553709 63.43812355070538 0 -4 0
4980 0 24 0 94.42723241942653 64.80644093511877 59.0351964715372 0 -5 0
2274 1924 24 0 92.21218500914708 68.58432681541095 62.374887947982145 0 -7 0
4734 0 24 0 97.43926830415937 70.36642009956562 60.97341143715928 0 -9 0
4100 0 24 0 96.35272728469143 66.20464254966973 63.52120117795687 0 -10 0
5155 0 24 0 102.30253057845371 68.04404825178716 62.429811750037814 0 -3 0
3838 0 24 0 99.29004564141017 66.61957134310953 58.193978081919305 0 -9 0
5662 0 24 0 106.88458742458994 68.51911359761118 60.061341668128705 0 0 0
1211 861 24 0 65.20961786319455 39.41531173613688 71.06026431275812 0 0 -1
1592 1242 24 0 67.15213478775394 41.549317024123006 67.18159447146255 0 -1 -1
1335 985 24 0 60.39239682090949 38.61209801739483 67.90287142114784 0 0 -1
776 426 24 0 70.93021964252576 36.841662088616935 65.44538360305556 0 -1 -1
1025 675 24 0 74.15134476437926 37.991955626066016 69.5957401491148 0 -2 -1
961 611 24 0 72.38115894443331 42.44654933991407 66.90273574851253 0 -2 -1
3236 2886 24 0 81.82813108829016 40.06199774166379 71.77106192626134 0 -6 0
3172 2822 24 0 75.28135479170395 39.05508875145318 64.81326104360635 0 -3 0
3090 2740 24 0 79.87565997733111 37.260000245434846 67.55887769313021 0 -3 0
802 452 24 0 77.71704359595354 42.00669293254808 68.85161764304932 0 -4 -1
3038 2688 24 0 82.39238048021882 41.869210378947734 65.92394352136381 0 -3 0
2518 2168 24 0 85.2693020309663 37.784088279980175 67.99242753615268 0 -6 0
4635 0 24 0 87.43502681102709 42.43121704546999 66.61049820579622 0 -7 0
2958 2608 24 0 90.13285717242962 38.604619882932674 68.90865318012416 0 -5 0
5170 0 24 0 95.21014709800032 41.008040376737036 69.860858421096 0 -2 0
3964 0 24 0 97.53848840629543 42.822755902524946 65.78556355242668 0 -8 0
4415 0 24 0 100.02524333957561 41.09886881377813 70.74382334704032 0 -9 0
3939 0 24 0 104.76959202977496 42.39773744524837 70.31100629902618 0 -9 -1
4792 0 24 0 103.25435117326579 39.044765641895225 66.94148762100218 0 -9 0
4638 0 24 0 108.7119730951462 39.42868246683435 70.12597151433754 0 -9 -1
5998 0 24 0 107.90324774148075 41.75142001796899 65.66895421908563 0 0 -1
5433 0 24 0 112.63813427628963 38.10966700077778 67.08891327716049 0 0 0
2927 2577 24 0 61.44420365139831 44.07307884044679 68.34715092027007 0 -1 0
2680 2330 24 0 62.60707211888397 48.22419690918594 70.96714844440152 0 0 0
2266 1916 24 0 65.69061644133728 46.41705392604899 67.93733650132691 0 -2 0
2552 2202 24 0 69.59917789905347 44.62878881845079 70.5366568283689 0 -3 0
2919 2569 24 0 70.80036306320812 49.42299647509544 67.95879876798301 0 -1 0
3214 2864 24 0 75.80812429989629 45.729697876324245 65.53414885770357 0 -3 0
2278 1928 24 0 75.8007477627465 46.63962141061237 70.90799846566043 0 -2 0
2342 1992 24 0 80.15778833494143 48.671770141142694 65.1460786738215 0 -3 0
2923 2573 24 0 80.96263363460021 47.939075278708934 69.7781252943717 0 -4 0
2439 2089 24 0 84.69411131079563 44.606335237215674 69.8173837311914 0 -5 0
3248 2898 24 0 87.61989838667719 48.954259820842715 69.2419694154727 0 -4 0
5201 0 24 0 92.9530272456812 44.87771576945434 65.82223679591634 0 -2 0
2935 2585 24 0 90.1348557595001 43.764990333639666 70.95357015787161 0 -6 0
3842 0 24 0 95.7875440477733 45.84056495855311 69.94307753709586 0 -7 0
5298 0 24 0 97.29907892289091 47.729750141199084 65.18447399897437 0 0 0
3189 2839 24 0 92.82355228038794 49.65836209013915 67.46835649570818 0 -5 0
2291 1941 24 0 100.79784832218016 45.64915811798125 68.86338890405679 0 -7 0
4186 0 24 0 103.17799748728953 49.67486143168529 66.11826134124371 0 -10 0
5928 0 24 0 111.2043654037752 43.668603745038794 69.29499738760678 0 0 -1
3744 0 24 0 106.7610690714036 46.85924670236376 68.78503904434245 0 -9 0
5955 0 24 0 113.00223644603896 47.90976669875041 65.6020061851497 0 0 0
6126 0 24 0 115.50207462672701 48.48831016419324 70.98751553669473 0 -1 -1
2495 2145 24 0 66.44174915279983 51.70596149256501 69.60223327046222 0 -3 0
1636 1286 24 0 61.90656437927914 51.33118267171631 66.91588295199915 0 -1 -1
1526 1176 24 0 63.997411469582644 56.28394887610986 68.72663552738875 0 -1 -1
635 285 24 0 67.3660392037198 56.10637403506745 65.46551660167485 0 0 -1
2580 2230 24 0 68.04482694525409 56.41317186193937 71.97824501505693 0 0 0
2484 2134 24 0 72.18434657838061 54.0739833048957 69.40453744036432 0 -1 0
3204 2854 24 0 75.48076061831979 50.46294296996149 67.41411268121715 0 -3 0
2297 1947 24 0 77.8399459397878 51.74047501610289 71.41915206474643 0 -4 0
2220 1870 24 0 76.12155821166971 56.09415146222283 66.63181290898852 0 -4 0
897 547 24 0 80.89527867648866 53.03419162736881 67.24294466339231 0 -5 -1
3252 2902 24 0 81.44890388335344 57.58613873515614 65.13304614946534 0 -7 0
2547 2197 24 0 81.45643911681839 56.91373826723257 70.77559934811536 0 -4 0
5072 0 24 0 85.29967681819292 51.264777892897 65.75079010743455 0 -4 0
1722 1372 24 0 84.77965686643874 52.73242687642037 71.32632877683909 0 -3 -1
2272 1922 24 0 85.70862827488627 56.27626195989326 67.50274217890909 0 -6 0
1480 1130 24 0 89.63848763699006 53.63250348358021 69.50495370303712 0 -3 -1
4297 0 24 0 92.84879760584457 56.084412916073994 65.62001233488469 0 -9 0
5654 0 24 0 98.65475383961997 55.674210712432085 65.43281699430315 0 0 0
5015 0 24 0 98.92666090122216 51.793584570360906 68.48013834959345 0 -5 -1
2988 2638 24 0 103.57584586984778 55.97309722220326 66.09928464310862 0 -8 0
3391 0 24 0 104.69675832817153 52.786291109309175 70.00948470654455 0 -10 -1
2542 2192 24 0 99.5736941108862 57.1213642856202 69.99660711414641 0 -7 0
5238 0 24 0 108.67926689060978 51.25268650126833 66.8814971950469 0 -1 0
6125 0 24 0 108.52363753646812 55.422607527887166 70.14120150373037 0 -1 0
5243 0 24 0 113.78783217418595 53.54235489362045 68.57929602039907 0 -1 -1
1903 1553 24 0 63.39320943650985 63.77160415339717 70.27457866804504 0 0 0
3154 2804 24 0 61.31929875302735 59.62656655276314 65.67209721318929 0 -1 0
463 113 24 0 67.47067009196883 60.684964556206594 68.22977343960513 0 0 -1
559 209 24 0 69.86710753834686 63.47047222576664 71.82980907016623 0 0 -1
2940 2590 24 0 72.25563978821752 58.84389156082712 69.6585374874616 0 -3 0
969 619 24 0 70.88251255693127 64.30879790866909 66.86650003805026 0 -1 -1
2225 1875 24 0 80.4466124400881 61.967579208612136 71.17860730087703 0 -3 0
2258 1908 24 0 79.69267693002733 62.68007548287085 65.14720389179944 0 -6 0
3140 2790 24 0 76.89103105398041 60.13337848719989 68.56529613984893 0 -3 0
3151 2801 24 0 84.56396525651958 60.81347456828965 67.48486822295715 0 -5 0
2206 1856 24 0 89.16974902422385 63.77561011087079 67.93070246332812 0 -8 0
2541 2191 24 0 90.290713457767 58.948088869103266 69.34097312313828 0 -5 0
3226 2876 24 0 94.67863982060089 58.23931553410346 71.17077623606909 0 -5 0
5222 0 24 0 95.13937413891762 61.29915520776884 67.26551455273004 0 -2 0
2341 1991 24 0 97.89747262738564 62.70073191160799 71.80038636660501 0 -6 0
6213 0 24 0 103.00642347122809 63.23837467645839 70.30274470329192 0 -1 -1
1567 1217 24 0 100.18963610532018 60.612481135405055 66.77490341172015 0 -7 -1
6114 0 24 0 108.58644920161322 63.92392361446127 69.69999923361462 0 0 -1
5969 0 24 0 112.46343070546266 58.84123813735001 69.70160571673138 0 -1 -1
5723 0 24 0 106.1256832383709 59.59121467807085 68.82517345244297 0 -1 0
5493 0 24 0 110.0048794482901 61.13506579503068 65.20815815519687 0 -1 0
1391 1041 24 0 66.61228118314571 71.37986114081436 65.40291654248202 0 1 -1
1109 759 24 0 63.62131424516531 68.93665610027016 69.94305079999764 0 2 -1
2661 2311 24 0 65.12520471624315 66.29954020368548 66.307571886056 0 2 0
610 260 24 0 68.51767716077538 68.37887609379666 69.69254587835721 0 0 -1
2281 1931 24 0 73.9607702537297 69.28380410775317 70.06410588207547 0 -2 0
2289 1939 24 0 76.18855837145392 65.12959703005032 68.67279125305856 0 -3 0
2335 1985 24 0 79.7319934422264 68.98811908039293 69.42786780134354 0 -3 0
3028 2678 24 0 84.4469374191454 71.48117547052902 70.31805371118003 0 -5 0
3087 2737 24 0 87.36855134324108 67.35061216392265 70.36622561029424 0 -6 0
2409 2059 24 0 85.85235132644723 70.36272208490259 65.44871876481737 0 -5 0
1757 1407 24 0 83.32122034286172 66.27015177408323 66.6038879331234 0 -3 -1
3957 0 24 0 90.89842567525928 69.4135906150692 67.24046919465754 0 -8 0
5090 0 24 0 94.76178489196187 66.15297490659624 68.53368500990284 0 -4 -1
3875 0 24 0 94.87502815369487 71.49785262335315 70.21489557164792 0 -9 -1
4372 0 24 0 99.73315433023343 65.40198577507715 67.45053078291743 0 -8 0
5502 0 24 0 103.65177285910084 71.63336561297507 68.09001053698688 0 -1 -1
4867 0 24 0 99.62874777551698 69.50721620372641 71.05580251458927 0 -9 -1
5692 0 24 0 98.44387621634509 70.45424299854976 66.49516400300706 0 -1 0
937 587 24 0 109.62244930316027 69.04862804600205 65.26191315743657 0 -9 -1
5529 0 24 0 105.12830320952409 65.25546463014955 65.77122160728577 0 -1 0
6051 0 24 0 108.42823470952746 70.93587506940223 70.0359988123513 0 -1 0

Velocities

5788 0.008689574312894306 0.12811292472780117 0.09182696942631341
4841 0.09993290275959009 -0.05181741176340318 -0.006629575133393187
5551 -0.06674543030649696 2.956582998498141e-05 0.02772659054697093
5483 0.18358739688159254 0.003987020123745789 -0.11615654785035155
5209 -0.10257805807469496 0.10934263439769007 0.10068352950617245
5344 0.06406655801860778 0.13598618515597982 -0.05179201696937752
4922 0.06649251858509692 0.04429194160392343 0.04082872988215389
5109 -0.08958522326987522 0.1452761853656552 -0.05563195424076495
2564 -0.14458765291091807 -0.07903170185849027 0.07024156053134281
4471 0.10325348545780705 -0.05364298021974798 -0.051888358238576335
4977 0.1555551326958186 -0.2111545017067316 0.0514945642766736
495 0.006855090948296299 0.029970223766730433 -0.001191215807048649
1247 0.12231486686169701 0.011395502104293083 0.119546417369996
2109 0.1355998712805133 -0.20964726219234972 0.12584828538594997
504 -0.014894703261104113 0.20298381938459253 0.044526766440995735
1366 0.030093866599754 -0.09937621115536074 0.047671286347788645
2900 0.0116741757207559 -0.025225331878852487 0.029011653610597307
715 -0.04705342992382348 0.09893383544001326 -0.18543097349057022
1772 -0.055599667988597105 -0.12169091924144596 -0.0974969643323467
2183 -0.012616749005409919 -0.05819953833442022 0.07460607281714716
1775 -0.1007579653489746 -0.11360833740921766 0.04987745441408511
1647 -0.02756308393653561 0.019440561436080066 0.11855975354076578
6065 0.09698697009771902 0.09605838470565622 0.038699077860403414
5843 -0.014996960324378219 -0.18112859530381278 0.12191570931393617
5370 0.12919325457078246 -0.008583871788660529 0.07970437841114299
5822 -0.08981132951742668 -0.07979137126714618 -0.04546766272889065
5261 0.04673055557067567 -0.09324836685696089 0.012426096249282866
5205 0.02257616606037793 -0.06509007069589484 -0.008126819419538123
4005 -0.04321523736283717 -0.03771335476482128 0.03647296540611829
5634 -0.12341235215751303 -0.05942864835337032 -0.012564889337806378
5535 0.07226392123967695 -0.08220038934484164 -0.057309790400058416
3984 -0.14672314660826868 -0.13396944262014154 0.19014946208413877
4148 0.02798576000897311 0.07641654816459065 -0.09603746099442276
4607 -0.10601068890694865 -0.04408924524142018 -0.17447989593738472
5061 -0.04612890452677791 -0.17657922749588045 0.16679346006427814
2827 0.02255396758361857 0.044899032046633355 0.039116660283402736
1398 0.03501517374828256 -0.09417885155652664 -0.01704338768857133
2861 -0.13046874410749776 -0.03451822223086156 -0.12232560551473173
552 0.004856664672075758 0.15489258731451652 0.03292133426732048
2180 0.12268144146036933 0.09721277868631996 -0.07684406957192581
1413 -0.06550757204909452 0.12976157239857286 -0.0845826106793929
1402 0.057631182105997554 0.11788861686310097 -0.09100745959789965
2587 0.08527369731575668 -0.006540712610931119 0.0368786141118002
2911 0.00940815021051938 -0.057500960387587736 -0.04815255407526042
1379 -0.047259136409533414 -0.12334403714260231 -0.026211903310026166
2635 -0.10115926376404918 0.08200514835629844 -0.04446797003958109
5641 -0.2001244859696399 -0.17005447767508036 -0.05594269029596177
5609 -0.1223631701758095 -0.05170640188267543 0.05736512312497395
5643 0.10107174650670331 0.13736047038600652 0.01965979005257004
5482 -0.06648569327473708 -0.013831368638680376 -0.08651049463160328
5221 -0.14041644578328252 0.1131460497030885 -0.004435423578610646
5833 -0.02243417227583011 -0.13564279021834344 -0.04919204091089704
5378 0.04787487056887632 -0.1687057061930953 0.01856537262088142
4210 0.08152725285564771 -0.040141129504712186 0.05899678731086515
686 -0.009957968865449824 -0.023314836162033815 0.10008551978867693
5685 -0.02325346416121291 0.11636541708767831 -0.1934523169931428
651 -0.16101909828511693 -0.007327976533805659 0.0945552704823118
3338 -0.027769122750504242 0.061581382325476226 -0.08246071913866798
2037 -0.03434206713630938 -0.03931751983305473 0.04928657003890484
1255 0.008971407892351273 0.038838542139254584 -0.07883357912854025
2118 -0.08119369686982597 -0.004137600292960053 -0.1610480610403234
2654 -0.0031717311418083625 0.13686285161549477 -0.08091209462901205
2636 0.16366233414125597 0.04770315841205231 0.06576679998841845
1836 0.05725035134165917 0.049599896401593575 -0.05307508489492421
2058 0.11430897361578878 0.008090794095042642 -0.049831771183070486
1381 0.04570204139501946 -0.08263702671426973 -0.044953051684889576
1235 0.017641639258168362 -0.12541781522007064 0.056477357957753604
1427 -0.10955092255746604 -0.12591328548698835 -0.04934080714494134
2673 -0.007153175609475244 -0.04820913250736678 0.08245999631529932
1654 0.007048302133400664 -0.03655196228285062 0.15177296578322433
2830 0.07562310158697749 0.03098959816568351 0.1104422621472017
1889 0.09724790342110919 0.11610177262022668 -0.18664730684277772
2585 0.035113549131192995 0.07280704818507898 0.10367643348875388
4319 -0.06505263696199422 -0.035132581273212955 0.0009216618897738248
1333 0.07146213559839285 -0.07958107708464512 0.0601243308647639
5897 -0.030941817154976257 -0.17942924910657437 0.06849778590289521
5949 0.06380295490190244 -0.06875569257200842 0.0727621030530567
4366 0.020461314658161943 0.05049661635127466 0.03914197425516555
4088 0.07699505564007479 -0.14608970647790176 -0.11762646441528932
5203 0.05016647927475977 0.016872794161838685 0.07455797776383333
5250 -0.024196211575325324 -0.1784435331630728 0.027842624735681075
404 0.0931982421739184 -0.06682240171282203 -0.027739619385959806
4066 -0.01682323402074943 -0.016691157076878783 0.08703900337847931
1821 0.0067846813263280036 -0.034731003865858 -0.037884842860737136
5196 -0.0033664350603225656 0.13576819753113437 0.13482475113101502
2732 0.14916451055346527 0.003106947139774013 0.016858735832867372
1899 -0.1498069557350242 0.11897875128812314 -0.13407186509308655
1896 -0.09066460269718032 -0.010639233605731019 -0.12221951489830214
2872 -0.04801259941553218 0.03598226910533503 -0.07709811186257343
1194 -0.04129233877166457 0.017878557574464795 0.0506343001983193
2170 -0.1274278696059089 0.0629288169485189 0.04132690726733214
598 0.05007687411907866 0.06346283406027653 -0.07681567712300495
2742 -0.02614898294782711 0.1682496476910393 0.07261586395514752
2675 -0.01910836178899674 0.027290888258451912 -0.025299014156949153
642 -0.04576167839201646 -0.07222497329864142 0.1075859836633755
2001 -0.03032233067880582 -0.003054309978510422 0.06006687124224122
2871 0.22977780021595456 -0.07281509124355082 -0.007208653943494313
911 0.14388682949188555 -0.02468101842622212 0.01691411057178778
5327 0.05136677045277252 -0.16563067200422554 -0.044687748743048095
5448 0.02568485735379485 0.06908656706457088 -0.0511386969877309
6077 0.056325494570187165 -0.07101525265017257 -0.09901734027137064
5824 0.04484800075841763 0.11496605046779011 0.09195382229690095
5552 0.19493244225390674 0.014606918686772304 -0.11355166155682206
4205 0.14980259676451452 -0.10399150522163257 -0.12598989590870108
4463 0.04913560545373241 -0.10987009920965025 -0.06593299639496725
1314 -0.07231602556698441 0.06815169594921885 0.2569157765709948
5014 0.09026124224745262 -0.09555827958866958 0.05175737749731274
374 -0.07777323039522696 0.07106122073756721 -0.14648200215014323
386 -0.012868749581259017 0.11690785078529879 -0.139250218136433
1266 0.24812717769368184 -0.05844187076283225 0.1016475987299998
571 0.1331308227906677 0.17509522490010546 0.07604471865997367
1892 -0.059732740945082886 0.10664209468913186 0.04140248788493986
450 0.06381286092343388 -0.08054333903905479 -0.18882466251832192
600 -0.08942119686686947 0.0071430132886208305 0.032579612336956804
1121 0.02618724808698196 0.1045930829299459 0.003704716171813083
915 -0.07470165283335913 -0.10021122330191316 -0.054719752827406876
5741 -0.038392063133486753 0.02669797257187824 -0.08363651537038644
5898 0.015580904131845095 0.07379305584786616 0.07000336643727137
5845 -0.17682149431645927 0.06206299917028447 0.0966869620682249
5650 0.0785629854511092 -0.06810635409475675 -0.003672628777331507
6033 -0.010806096590121654 -0.05820110187724008 -0.09256007911918263
5954 -0.10874582003803064 0.033866719204710585 -0.08280325206115588
5972 0.01686152026474671 -0.048202259705628955 0.01593880901261623
4704 -0.01627509007619213 0.2421016135213658 -0.004545331550190496
3477 -0.06617585594178403 0.12057925016273083 -0.08797749260788965
699 -0.02041982049332061 -0.10070087327338499 -0.0401028146103634
1331 -0.04782490362397904 0.05414687617058019 -0.05600891845143145
464 0.09281348528561996 0.009839666930071427 0.12624253475580957
5101 0.050809860993580785 0.08595150028029537 0.11575075143341149
1132 0.006246691044330774 0.056269925961027645 -0.0907973998009539
4901 -0.018555092797786034 0.05751882301169932 -0.14640824279458275
1144 0.03878285913905952 -0.09966870602326589 -0.09756273129010004
1189 0.016125940405946473 0.1129350473790722 0.1138096203789602
631 -0.015190576160522412 0.16511425007197095 -0.04766313511841991
734 0.0859396292289431 0.02684647037260278 -0.06088831449925672
476 0.19082128451344438 0.04095906859538731 0.09780419501932992
382 -0.11560142029735021 0.13583650246193818 -0.1194297869671044
2000 0.033095733410237374 -0.01381386036980833 -0.043383779515031966
713 -0.057485171949587 0.07777031093501566 0.07681060339535577
3186 0.019984848221632958 -0.07072111632708117 0.07369555047556017
5369 0.044456002053717546 0.11791763699771309 0.16336680412603505
5853 0.0019013132383302895 0.08204604684648628 0.0049738255096295455
534 -0.02663286301890861 0.05040916325022346 0.028498356864079866
5848 -0.050600132589444055 -0.0029906430549206334 0.119077446610771
394 0.07335067571292013 0.1359324255696806 -0.12047811716173802
5906 -0.08050984546033096 0.05645885671813599 -0.08837725581288645
4924 -0.006642150528217639 0.1182127513409477 0.06770276279415198
4391 0.09073969519918346 -0.05671998678101747 -0.07443948437047802
633 0.03488706169848174 0.0023022834965523015 0.0016026462072304543
1358 -0.03965381975829116 -0.034025506745890326 0.05094823646974415
3319 -0.0307845248643598 0.01583390322673475 -0.06740460990809224
1420 0.08851612300709695 -0.04968192431799319 -0.029383280160078
659 -0.19901819811258795 -0.010254017344507257 0.024254772644729326
426 0.05250837179324404 0.011265736705080177 0.012202433248152898
1169 -0.09799146623398405 0.13919355437048986 -0.004233824165484373
1421 0.00895137923719358 0.024466657152502767 0.03817158457250641
678 -0.09631038415795865 -0.00848523285992486 0.06953586036963776
1321 0.10156194966337609 0.07793702094941692 -0.018262800822531466
1207 -0.0288440606155724 0.05214411784980823 0.14790153414532012
2719 0.007232983961302718 -0.0022603894562407065 0.04127809365172014
1034 0.04799744833624253 -0.07274117979463803 0.002825176192580577
1725 -0.04209267979325362 0.03533129745746945 -0.06274575171839
6145 0.049489166881914244 0.07593962085614313 -0.04615627425902148
4910 0.05169386157016766 0.1510978155708036 -0.09702734547843692
2119 -0.05966238649910253 0.20218831076712182 -0.21991549183158537
5536 0.11208593251264648 0.036046635399609284 -0.1543560021040077
4155 0.033338781998792706 0.018206985837274165 -0.034038621747891795
5581 0.060808109455753184 -0.0904706093561432 0.07962874982189239
5522 0.05178155305015434 -0.05110623489898719 0.16386629913372458
548 0.04956892307547698 -0.05952671942797973 0.003777353801590817
1400 -0.015475727040236649 -0.036941453336074695 -0.07687250069335098
632 0.1042526192114887 -0.16023410311303285 -0.016739517880124996
6085 -0.08453806575603577 0.006454422450145112 -0.034897284950447735
433 -0.10952264160240455 0.1758527813597919 -0.011804205114660033
1246 0.006287393940727767 -0.12086585022218539 -0.09515120850971762
614 0.02866910124970247 -0.06720396859573868 -0.07401554438733046
1269 -0.05599294305209397 -0.18490604232526012 0.031340588655238616
692 -0.03612145759970538 -0.02110902527501457 0.0776977935562008
641 0.0002665068000881482 0.11166786287576137 0.16798626862607519
1108 -0.1633426871618772 0.05967618968147438 0.06511363762128179
2049 0.04742802328576552 0.09350100126761696 0.04453486728039418
530 0.08014288293954482 0.09436936860316184 0.10628086036020705
1212 -0.06406296978688931 -0.03493433689037063 -0.0371757997629837
539 -0.14245427819901976 0.06333487151498923 -0.15443178805391522
1172 0.07890416508706512 0.1393266313601379 -0.08428634911164568
3714 0.0909315551190932 0.03324834384589892 -0.0854598005075386
5506 -0.14689636537342718 0.015582946027533372 -0.02533981219641992
5705 -0.16280083536554496 -0.07711362670473425 0.033952917968851554
5909 0.1279065780950488 -0.12082378508915512 0.12196223281882541
5861 -0.014557882951724863 0.008309094690951008 -0.052512599365402875
5715 0.014878843423013788 -0.04849897150243196 -0.0809643404484722
1264 0.05018862429325696 -0.14822372857121496 -0.10368828790259567
5782 0.04551902048348569 -0.0973674039186352 0.11940762952408764
3334 -0.14195910931273217 0.1654590615770183 -0.0043777233818179905
5412 -0.08361422774290177 -0.13127966163903793 0.04045425738167459
2781 -0.14877632872202057 -0.011228747688704665 0.12832945731615392
1163 0.03341547215738417 0.08455488042498584 -0.1357369874447975
656 0.02214296975850715 0.26195152033974584 0.03657764771966667
5393 -0.0698713029319031 -0.14204199796499276 0.0359646071408198
1390 -0.09345275250734665 0.020752540905073558 -0.08769869928760868
1168 0.025837853356560005 -0.11721644292240196 -0.06656722846145006
2906 0.04727899290108174 -0.10321850672543068 0.00757752187857666
722 0.030518458749540088 4.420332050256853e-05 0.08611891855103175
617 0.09373407455245251 0.013143214241074664 0.059632270688070275
1410 0.027775729748081446 -0.030151126184755853 0.14022010652177638
484 -0.03003146359970138 0.15399419408524445 0.09638641737698009
1334 0.01186754118491632 0.04521092576378073 0.04637977087076982
1145 -0.1110914969535926 0.05172004223704125 0.026935314996648165
5918 -0.1416133554397233 -0.09411046358822489 -0.06806385139656936
5728 -0.014641023929695293 -0.07240030725454889 0.010128458000821627
5521 -0.059897792349946424 -0.009819819100374952 0.1675869075884169
1383 0.06990900140675205 -0.0764159918195022 0.007146280865051504
5896 -0.006264696633296293 -0.044120428107395034 -0.15519212269145924
3990 -0.048429950322021145 0.09628611390588551 0.03212719307395564
5268 0.0250213682666169 0.021104572385471632 0.056386807615484834
5624 -0.16431014822850465 -0.11386013375527912 -0.11359608047720138
3327 0.02400284141693733 -0.03690855606216482 0.07149272744321503
4431 0.03561757413588774 -0.014800407595474352 0.16399461804888052
1233 0.00862760006640394 0.08323188259897929 0.017184635540120567
4721 -0.09085244559706916 0.042405366225000046 -0.20173850816024708
1416 0.08153844584481966 -0.08729942082312958 0.04973830748639711
3986 0.11409522390150993 0.14677277650991566 -0.06478828638443322
5142 0.030133546165434063 0.14638402118061827 -0.0779727983529281
427 0.06726589905635413 0.06887474368747526 -0.11566737585713413
674 -0.078824963810783 -0.03670457304111162 -0.06218193056511139
1422 0.02980396202759371 0.19100529316638612 0.016841229436284307
1999 -0.18842941513860853 0.15390081235464803 -0.10145757797001236
457 0.0365708755750637 0.06380812390815364 0.01978884063995766
442 0.03495293502035775 0.04988184498711607 -0.09091800154859479
461 0.043850547200259965 -0.07993955103130773 -0.1812131694475413
1773 -0.10975919515516949 -0.17971242124827375 0.07676122800615265
1440 -0.0061284778291087975 0.03229447309407485 0.16878860010061286
1113 -0.06240611629533749 0.06082256158791525 -0.05541224231586207
1196 0.019910947816034363 -0.16951584157241834 0.1108435143887528
5585 -0.03912105450797791 0.03219519020011412 -0.06255974141448968
6113 -0.04984542428267509 0.14870619005570523 -0.06292193485416453
5331 -0.10226528486702194 -0.01977796938299413 -0.0881153411220292
5545 0.1570855223217235 -0.01744783800783624 0.08623161984659086
5459 -0.026799646801572524 0.06708613922639942 0.03394393777708107
5711 -0.08602787468770175 0.15923698794916794 0.17708360342103172
3574 0.027015776690177552 -0.04139080754087635 -0.039631477109764425
4656 -0.23567296161276627 -0.029593399945535923 0.02943418604573785
4918 -0.029070972454512685 -0.13773268789707255 0.07143134583667944
4215 0.015380249369406514 -0.056754461604902905 0.013020515160034196
732 0.014513720006012388 -0.06332322349289815 0.11021704982313985
688 -0.048046659665408525 0.030979668791596617 0.13851661931416998
1234 -0.1479724333477934 -0.043607354694572255 -0.10633747545898338
410 -0.032392600020881845 0.00976963218400884 0.010452146359429353
1126 0.03504745992220385 0.015426183435353298 -0.12513964385317652
1446 0.010600375669546903 -0.06870449312856196 0.02923747343134556
684 0.17714858116923093 -0.05132354175790571 0.024094914258096352
512 0.10534397417149607 0.0644306196459512 -0.04581607232532961
586 -0.08249531196967923 0.06818815823446693 -0.3058833291042805
1384 -0.10522105246019367 0.06441499760805412 -0.15338419594646732
1341 -0.1491236294821348 -0.11113390508354108 0.04097368836805586
718 0.09499320700256707 -0.04260632664611348 0.06302715620228166
1339 -0.010786689772119846 -0.07881773723721198 0.007423610229918628
1330 -0.059700123775198025 -0.03288605091819969 -0.009456449361695683
2754 -0.016557566024358872 -0.13129405022900814 -0.0661006134153915
707 0.03881403433054805 -0.0341453541806686 0.08551569869086474
1399 0.009849614323340038 -0.041045094664301285 0.02863511283545711
5769 -0.016228390701629423 -0.16434910624468857 0.008942107403823882
5773 -0.09693672661485579 -0.029481832186962688 0.06019084707039918
5547 0.04547139014564462 0.15096574264664994 0.11394002718726942
3471 -0.000990252803686165 -0.14644912327269238 0.1004537030508408
6183 -0.1219469610802332 0.014131378914198182 -0.0038927794244228535
1181 -0.05578639436619469 0.07343304455598255 -0.005267924093801665
5684 -0.011755572209793787 0.11658918506033997 0.07639205712561518
5311 0.11506711322841567 0.06293388425341753 0.01076517920127356
1288 0.1335152555185263 -0.019519680915252344 -0.007042741990842177
1429 -0.12082629782467674 0.031823463471594 -0.03961526598677424
4466 -0.027682989768983708 0.04374903401899601 -0.1653106566311082
554 -0.025430296994241163 -0.1562310450402885 0.057003254693921174
4312 0.09409209930067904 0.060531909284799276 -0.020326909224746205
1151 0.025284885421574286 0.14875338411405623 -0.022119649672371684
1241 -0.08814544589394085 -0.042246192730365756 0.0854737046060381
405 0.1042504572819661 -0.03488546426733842 -0.019349014671202258
1292 0.0018677737665074336 0.05130998892682825 -0.014946893232821085
1243 0.003165863017166686 0.12968155118622884 0.017298187327174815
788 0.1992533922513993 0.01549401001737273 -0.0945656442605436
1199 -0.012927477040108515 -0.020426224603674575 -0.12589333625355917
1749 -0.10210774580683767 0.034334654957945104 0.20048116890763848
1125 -0.03148212972294688 -0.09258858667030999 -0.038074655016559295
431 -0.04661504924982017 0.1345247567341506 0.0863185992923731
922 -0.13378455016587745 0.019131505843710744 -0.059719365246215635
6010 0.014340330915559814 -0.052147515070993286 0.004041885818138996
5531 -0.14615682235790767 -0.06336502179481084 0.04796856263821603
5764 -0.18402126534464636 0.054249349785327174 0.10724589539745288
5492 -0.06989127418767695 -0.044615337520808124 0.04200683327826633
5691 -0.13127549434606725 -0.09720701802782655 0.03293650160442713
3307 0.049667510595614625 0.050523548536353415 0.11101846933359293
6038 -0.08796236267682041 0.04222762433306356 0.005683916969731931
4310 -0.027913708784960235 0.2338137790394142 0.006260480780640008
3815 0.12820783757653803 -0.0010840236606737422 -0.049686419402885276
555 0.09749215863023719 0.032904632038928155 -0.142857622162134
4976 0.05525815092598155 0.03037464913452166 0.1045708659304172
5357 -0.006567919332632406 -0.2605782264271007 -0.045854259284749115
4086 0.12646750986789562 -0.022657245747906098 -0.0018184404653048963
3606 0.03912898170456306 -0.12628418327559834 0.07442021285125357
1336 -0.08319188841766255 -0.04370006365181413 0.04844726195489574
1157 0.032550035704401736 0.03694117409667634 0.10886305279117918
705 -0.07814782873243688 0.050064211831039006 0.010478936107384408
501 -0.16607735384256786 -0.01324567543513959 0.03784437439893528
1434 0.019671861765188346 0.0020927793079342106 0.010284099506126567
546 0.00660015598573489 -0.06232927940645641 -0.10052531349557321
1463 0.02412400476951499 -0.005577431431662314 -0.09493087134090993
573 0.06616149136477356 0.077489373903716 0.14267844998280602
1230 -0.25814363718353395 0.1654781954191979 0.22548164880929333
2169 0.1533310386343244 0.020903176351601927 -0.21639187382864422
1318 -0.08649443793760939 -0.10028863338348643 -0.09767316209080097
1645 -0.05959266445232839 0.01808116130428197 0.004680478378491717
5813 0.1775615950686549 0.06409068358811057 -0.08442652204340602
6094 0.13650274774173696 0.0034472572729802708 0.030763882517404396
6079 -0.001985318476259097 0.0433315195710851 0.08717013901795301
5570 0.09081510168760502 0.020443964788454914 0.16149877699060639
5434 -0.1022452247852299 -0.09389950448479639 -0.04587646698195729
3891 0.2523354291737779 -0.006510315708383474 -0.07375061224697828
5474 0.10543765998191158 -0.10306494620394266 -0.0212815653147864
4981 0.03182733476172367 0.048738532080442556 0.053893643656559694
1344 0.22871095590635163 -0.10605853715620403 -0.062200383900613415
5035 -0.042293066409161494 0.06309981587146475 -0.12567488344743663
1431 -0.07567210083464962 -0.06727630234875373 0.2616219082764158
1354 0.009308450259996718 -0.02116024723264113 -0.15492579253298844
434 -0.17647352320851098 0.03281348554142142 -0.08761435657770705
5343 0.036190953229183954 -0.03952410459179936 -0.011116894323070135
524 0.011973018332796138 -0.06811953908667234 -0.05084815173960016
1240 0.05894635246800875 0.005303842905379991 0.0797455442839809
562 0.07176909282793363 -0.13649273786005417 0.07985167080246135
605 0.04017110452023849 0.07113575343572881 0.0586655869565212
613 0.1393824730363458 -0.04004740114769162 0.07097483111832543
1281 0.16243187148598132 -0.10813633575942251 -0.058344368787064
645 -0.136116616802055 0.14472827060881635 0.017396288481788126
1104 -0.018021037140296785 -0.007958596564331774 -0.12054504202552058
665 -0.001066682040426493 0.09367447744663539 0.05683363371135071
1303 0.06459242047361885 0.028479635242192124 0.04247001326259668
1195 0.07956185348013337 0.105416915612205 0.13506109414107217
1165 0.07947648764404514 -0.14816234760598992 -0.026188753497496504
1141 0.028591308961613167 -0.14276959326834202 -0.003278580665045208
5515 0.005389988303194371 0.13883572123765642 0.05248298070900765
5894 -0.09052730293990913 0.22094767475785315 -0.08298921235148486
5410 -0.05761344223277194 0.04241682789181719 -0.09299620827185523
5800 -0.09703161033319549 -0.014351327951781803 0.012749541840132191
4198 -0.07815617282286337 -0.019484724346225803 0.02311509236202175
4970 -0.184346046063202 -0.08726618320208043 -0.049633728869201824
1368 0.04023258029913922 0.17713959272396612 -0.024276746604425425
3798 0.06166954828880946 -0.1726315166864628 0.019579269148490855
5345 -0.0022763425522556568 -0.15928066527923992 -0.038158465267857225
1465 0.08773490712281751 -0.13663242174211299 0.02727657872398067
1418 -0.022913655716965256 0.07641874859228891 -0.10970844086810548
711 -0.004335687031126981 0.09469976293096026 -0.11241184673997273
1317 0.09127546430249538 -0.050358339685679675 -0.03346680592912765
1393 0.15536801134731582 -0.11276492393856413 0.022381105275946292
1442 -0.05056647272080758 -0.05633246899781118 0.02567334821856509
1239 -0.004698955067110235 -0.05626644965261007 -0.009050583459455676
822 0.05535182288615954 -0.11572757730267742 -0.03365921224827655
1382 -0.28201062795676973 0.15207274882172914 -0.06404006353546765
760 0.09607525149515629 0.09587848846019012 -0.01424859853439469
1373 0.12828306769360392 -0.033397670693030936 0.010662992997544748
996 0.08894327778401633 0.01881629922927416 0.20928923918793332
5973 0.04446525843533767 0.04029484619529057 0.15951935611467344
447 0.02084742587337171 -0.1508174382983011 -0.307074051476099
3286 -0.12194165956283529 0.0830905788421196 -0.06251007553104374
4301 -0.08601042270192187 0.005880860570702941 -0.0013170563931713744
4589 0.046490505714874335 -0.05187673569801019 -0.07950800079310602
487 0.10181781159057678 0.024985152315839268 0.02177212512172213
650 0.037616445128570555 0.07272421308142753 -0.08159711131457613
4732 0.086995255532518 0.07504470982481931 -0.0928993899965485
5348 -0.03582090548961642 -0.03411346443100121 0.05592602547105979
1394 -0.13347062763119946 0.06824704082259259 -0.0504104242292437
1117 -0.07345772081280919 0.11841162976454853 0.06620340505887921
513 -0.001961024392879834 0.08184575144230835 -0.033542149983826895
1385 0.003624308753970221 -0.02306892476317349 0.07160310196297458
566 -0.1375478750081625 0.012386393384246498 0.09777367985358343
561 0.08693575624684899 -0.10324795393312829 0.022403420881129343
1997 0.0963610169379557 -0.04784650137257032 0.046916298363042674
1249 -0.0844006116573747 0.03539363985665472 -0.18775204077081403
733 -0.016963510621091527 0.13417397957954155 0.09349259533810805
1176 -0.06958091545165135 -0.04767526853634747 0.03445359331290695
1175 -0.036770206076527104 0.04479011608072661 0.11228102087739862
2014 0.007889371127342563 0.010727021711187218 -0.11581046531490302
6097 -0.12301467287363202 4.6785083938491717e-05 0.05234731252658465
6080 0.08573620394686003 0.09172305367357671 0.022592300922122874
4305 0.0794835501287934 0.1296985943604187 -0.0030810364517498004
3297 -0.05805576088733248 -0.05617375504278186 -0.17828871252108983
5125 -0.10363160245688428 0.0470002999446405 0.05196809143900828
1217 -0.11748420031538255 0.05713167746081256 -0.14675846420315308
1283 0.004303544133980469 0.16066434398170568 0.12488093459241129
4191 0.05869397417250537 0.0740547634957962 -0.020738691114959913
1322 -0.11042868064413253 -0.05278360589670552 0.16496211244661244
616 -0.13025497745438253 0.003867125471296331 0.11887323347041209
1251 -0.030963217339527248 -0.052836430461361314 -0.11557262857671857
1253 3.5307594514998584e-05 -0.04799339741510794 0.02970188925333611
3294 -0.0879454017378968 -0.2265129226478875 -0.063468496359566
1953 -0.02243911978001769 0.06782277856936378 -0.12012695864014787
672 -0.08262190038566677 -0.23826555138758823 0.051225832582484455
429 -0.01628126765340936 0.06347021197004764 -0.011028194110245566
1377 0.17254929468760039 -0.05214948210019134 0.052052572030088784
508 0.04623340562044233 0.10098945317043373 -0.19493537537225353
717 0.016509918585509233 0.006589541990370561 0.0169705046606055
1699 -0.1160471350839097 -0.12543695151783504 -0.08794082664826246
677 0.03462056403069864 -0.03635644344491732 0.13165433741166238
1238 0.03720484801154642 -0.035090809602480275 0.023545919500626164
1112 0.016570347072653327 -0.04981291774413889 -0.08302840864413016
2611 0.06842138596772451 -0.10069651964471428 0.1949555504060655
6087 0.05334970021543376 0.03151232746502048 0.11972171230261781
5384 0.008121759928357548 -0.15309553285863578 -0.03944031839447437
4971 -0.13517223394817435 0.030691551364516262 0.07333914220068118
690 0.17878964189406218 0.030537287787108743 -0.055828876439017766
4057 -0.006605225616871888 0.036067805221355664 -0.08547015723516921
4140 -0.11647464466786397 0.058253703466659604 0.029817811582375845
4367 0.10047081492776992 -0.025985860671688864 -0.0025784445171798155
1161 -0.03639320075744302 -0.009703602050885055 0.13499595568414308
1329 -0.07342039902328991 -0.09010040456005645 -0.08592043125950839
1403 0.062262150606526005 -0.07158931439247113 -0.043505458083009416
1203 0.005530731253291746 0.012901141721320675 0.008407956971731335
1162 0.018715351722557595 -0.13558144263680308 -0.12042177628559819
2156 -0.11661585871880717 -0.0018719344615633071 -0.0375950931687179
1435 0.015137588731673906 0.03379624847047862 0.05851001944804788
2079 0.0848062392492782 0.02059934479807558 -0.001824074159762411
1538 -0.13590174096166233 -0.13180786849645754 0.0541090152395827
1743 0.059672534215397297 -0.04516596108159565 -0.04879605303567368
751 0.0365515972083002 0.024578396449103236 -0.07681283326334604
1449 -0.10071766369583093 0.06422040319199442 0.020918194334114973
1216 0.05660862503069137 -0.07299908641922209 -0.023832385800783604
1346 0.007189588529010532 0.07532197332691296 -0.02520537370636038
749 -0.0026676336023443714 -0.038523325420449256 -0.07689742162402588
5690 0.03762852275627404 -0.05182159497150711 -0.14343203207199795
6030 0.0765939706504918 0.08593118589621301 -0.12698121347018756
5600 0.07328038575453526 -0.0916056602665065 -0.1093514203852192
6181 -0.010297280885414442 0.0503290559165151 -0.0033532709348593724
5983 -0.05148625766725639 -0.07947671705991735 -0.08435139390336675
4954 0.1422972941535312 -0.06696538170495835 -0.07474004859922771
5395 -0.05980356385852751 -0.19043432557481757 -0.050458312915889626
1448 0.019372661845951173 0.09732970153734084 0.023179214411374063
596 -0.024731877418562663 -0.014668933956766161 0.04146174395593679
1159 -0.011825434856138708 0.005646613790525673 0.008120019243037652
1328 -0.12985121347766346 0.08387109343481525 0.11041379863474324
5315 -0.12931684346586148 -0.03816506380387249 0.03734650458304298
1293 -0.09143534096934555 -0.16914439294309103 -0.05665587178000801
549 -0.16822602929555974 -0.1537230290356229 -0.04976548128460977
1147 -0.07925677279931002 -0.23403510963925686 -0.10182611119821836
1459 0.08778580823607461 0.001527849602241171 0.1455958853489238
1098 -0.043373275050311744 -0.049743504568174945 0.10806768560175692
1370 0.07202864091741709 -0.022232044169703 -0.019583822842837363
679 -0.015643910295752305 0.007938998629186102 0.11141840024246596
1139 0.011943885971196642 0.19242075991196794 -0.11533595424250266
5074 0.036133726681399816 -0.19607031984738948 -0.07040812176386296
381 -0.10956433291495007 0.040544529662044373 0.042767819905332655
592 0.039300390740531405 0.04561680658872265 0.04425394660913292
1481 -0.07229766538235895 0.028381457478069257 0.05067161845564555
624 0.02886776584829451 -0.08332494740621271 -0.14586464293483242
526 0.06773147184662986 -0.06145155406087829 -0.07594496588525732
485 0.040067995662042034 0.10472463125127604 0.009617741804421225
506 -0.1591976874361412 -0.043401817666778544 0.06421010273171152
1286 0.05386042500600775 0.02865450856074838 -0.13993745750074443
1767 0.028379721753706837 -0.15962481959797895 0.07426561347695736
1587 -0.04928544911330625 0.15502454081813716 -0.09561429448154839
6153 -0.09448764245748086 0.20610770087706404 0.08024091571284157
5514 -0.05547424632240046 -0.023642933116113415 0.1541635520044221
5440 0.03866086151458605 0.13730495613039134 -0.02257021659507515
5648 -0.07294255578092186 -0.016095122481382014 -0.017933783373915293
5281 0.01246846460178661 -0.09967565406254247 -0.18920125300420976
5461 -0.020501016646129844 -0.1299480964854205 -0.05703385335552367
5070 0.12739242046388105 0.15177896611125993 -0.08911345507521368
5858 -0.0641806372583159 0.09820076650564998 -0.03322939098535965
658 0.08279876926106457 -0.030567274609696403 0.09459561728818565
3992 0.1861423656492241 0.03388795340713261 0.10296073548484852
393 -0.03139624227560471 -0.040412181149469914 -0.012359301927440823
1131 0.023464047017016022 0.03708495634670257 0.03909124711756558
1451 0.010744881141863272 0.08946110326336866 0.04784198378390737
1265 -0.12289684066552482 0.13454147651918327 -0.052847810916833375
1460 0.01680902934086915 0.07422275651131824 -0.008161721703550437
567 -0.012323302261178684 0.19329343663195545 0.03619475825549495
1650 -0.008363635352165284 0.04467546072060879 0.21931100719328397
1578 0.11693486620631226 -0.04179332934119712 -0.07899322065895045
1029 -0.12100804105743666 0.16559084481444086 0.005201812709710301
79 0.07205669936461191 0.14710397985166518 0.10750653605812706
82 -0.04648294202893649 -0.013394166371718991 -0.03969463452667106
70 -0.18024804593075536 -0.09618077744150509 0.1181836047195214
75 0.028699642849468306 0.12179523574863083 -0.08811233589934553
83 -0.105913520309776 -0.10622117353224886 0.04534788056746912
489 -0.1203533108938647 0.025158398111257294 -0.03026709711876502
73 0.04448487124867649 -0.058004959482737505 0.07917802064581173
1709 0.014523909660393713 0.14518445267529512 0.034993862836352564
76 -0.050321499500807505 -0.0562701632090659 -0.059648756944669507
74 0.06283431140684699 -0.014179285626395217 -0.13744649671664466
81 -0.04208020809737435 0.015366803564987958 -0.14480552110221506
84 0.08570034384306466 -0.13435229443754237 -0.09732293804654879
80 -0.014694217110255429 -0.037718601015829564 0.100683425916327
5028 -0.06479469120545384 -0.06992979844095712 0.009189201843331798
6233 -0.09471516205010004 -0.05055637708162486 0.04335155323772109
4839 0.07468256610189544 -0.054666410843681706 -0.04359655674629469
3695 0.03096552604041505 -0.16604538528034485 0.06819460752923585
6179 -0.20606264159745022 -0.06004325667914012 -0.0023000524342332643
4203 0.0509750878001598 0.0517451161618267 -0.03730249069996568
5932 -0.04470007259163874 -0.25827018980171096 -0.03378126079815487
3416 0.023504537999574686 0.05690235187794224 0.1327890954473476
5335 -0.05491468810605438 0.18419080399014257 0.030065031905833785
6168 0.12355323825136838 0.0677859961180485 -0.036641509280573914
428 0.061737079116255214 -0.007970377591931975 -0.07888539005028022
5438 0.06611613860201751 0.05388446430496103 0.10124516445314234
3300 -0.024637174714917352 0.07575903504403375 -0.031664677058618765
1193 0.06671441779687656 0.12148037306478433 0.0019813903143365867
5135 -0.04012940369164303 0.1322370937191256 0.10772688623561269
5185 0.048479339188739465 0.05426747645509868 -0.16102201567641777
1388 -0.05667446436410206 0.008611680212990809 0.014193096629976433
2164 -0.1214076552950626 0.042962880662142156 0.03426578112288028
2869 -0.0164205859782908 -0.11934717698671944 -0.18293024801206675
1882 -0.004126805532875222 0.049643977974926624 -0.17057175271125194
2817 0.09493550395967817 0.00872817679388618 0.05119504299303975
1453 0.1728385735420981 -0.038050315118735044 -0.11090806078527829
1964 0.004612547807500175 0.06514137353297218 0.1053832327040249
2094 0.06026365960176588 0.20883763098858432 0.1943830103117076
1887 -0.0016817781331778144 0.0693521853907931 -0.025341289169523308
1686 -0.04422739018211418 -0.17413086648520065 -0.03226603621410622
5856 -0.15431167078820912 -0.019009244108295235 0.00891723247268931
5759 -0.02892754490098693 0.1064266032900633 0.01219537770204226
5129 0.010929918354831694 -0.00174608594926607 -0.028253215220901556
628 0.029114706302962836 0.14805199319564444 0.052257941621660725
384 0.08813877525477655 0.04779567833436391 -0.10471174679621519
472 0.009505795528018467 0.05661672672113107 0.010445344362574143
5166 -0.24757844586239933 -0.08131634795922449 -0.024799242256595216
1263 -0.018357184199713716 0.1324793027724054 -0.10390180823366246
1208 0.026931922091301158 0.12080678863365976 0.07192318487678445
1316 0.2046427174606557 -0.021771634603544497 -0.0027375125096622266
1133 0.2596765699565737 0.04038504776233363 0.13129266077875046
2799 0.03510034590234843 -0.23493956169615554 0.07775886548858305
1991 0.03245740579579559 0.007529376947965744 0.03198537895958239
536 -0.07666065372307451 0.14593429490108084 0.16852955648341286
627 -0.010219684248016747 -0.16377235153134478 0.028452141004490054
1110 0.027352464794487375 0.054374948106994336 0.0244639706467619
1967 0.1625849379626934 0.03225438375492861 0.00886216524491017
556 0.06333698424687123 -0.008795252142589364 0.16294333520687895
1122 -0.06018407555147044 0.06904262443326076 -0.013680762972370062
5587 0.008000953384409693 -0.02542720867261122 0.032473025376475964
6067 -0.06497271507098175 -0.08642177442779761 0.1421465763549838
4201 -0.06627035955486389 -0.08721173487325867 -0.04573796997293433
5321 0.018064708510703187 0.041263337226020005 -0.15857971828578937
1464 -0.0663835707253746 0.04649853441964469 0.07017591212443502
5114 -0.14093029825390158 -0.057225925034874614 0.0917997349439352
5340 -0.05041194495669849 -0.1126955289348229 0.08356463913534558
380 -0.024418365122946317 0.009520194144110842 0.02337352391272231
5042 0.015659205271333278 -0.04190512059530098 0.009716405238198915
1323 -0.02529569531191212 0.11357307405799855 0.04714167787692364
5324 0.10991701156842808 0.05722089572061375 0.02290402745487823
575 0.01091015181355491 -0.12005260896308396 0.0477437030085142
418 -0.06643652751619226 0.18787105514830765 -0.006724636810728563
388 0.08673713623591059 0.0921630346860589 -0.09133465484371735
2987 -0.09498996148907987 -0.23714782433028825 0.05005947047253303
445 -0.079893934109553 0.02869427628094643 0.17279255543431055
401 -0.09734896946920461 -0.12581565979477694 -0.11505490137753238
625 0.09999790126103834 0.027551783310775374 -0.08641396341029287
1768 0.05379376253684684 -0.10970609693724472 0.020261162429140056
757 0.0801236131250092 0.06911091856005622 -0.1823042279509661
1143 -0.1524907217478327 -0.1874515094563504 -0.035897423391635194
1225 0.10815340704580323 -0.10677060093702023 -0.01227714706891854
1751 -0.09686288783055867 -0.07286026846992241 -0.06853549302326871
5877 0.004574214484976219 -0.04711988009799771 -0.11827151004864038
5694 0.04698899725560156 -0.09906677576967779 0.06052817507829366
5550 0.10673809326891025 -0.07000347725404975 0.04209031754269062
5510 0.008897634715588701 -0.09344522973577493 0.0288446683036616
5888 0.08772847941737923 0.11195100895154979 0.16613505099105128
5760 -0.0741948223506928 -0.12104003133120596 -0.14920149741110458
1103 0.15583898561189738 -0.14407804896309664 0.005864916869624351
5427 -0.07850595704947078 -0.14303363481441353 0.04182216373641352
4916 -0.07120943542339353 -0.13481125829523552 -0.03984644492100049
4643 -0.05372712856723089 -0.07758675423540562 -0.016631980607290972
1119 -0.1103079665888185 -0.043656434271885994 -0.06881607143559122
5131 0.07250423851301835 -0.07658991109687542 0.21760711201085747
1275 0.020461458241857383 -0.059946468598202636 0.027449769765479737
1705 0.07047614217519918 0.062027038272051346 -0.056432193978863225
1308 -0.031182009857249664 0.03941591054509336 -0.09032847387817922
329 -0.0018235914185562186 0.15527425306913462 0.03884368810266081
1681 -0.015968278671881733 -0.082478922248084 -0.02102539994946106
332 -0.08427783928016078 -0.1786912784876723 0.19073904039091566
330 -0.004866758642007143 -0.06566470762015372 -0.13594212109365192
1342 0.037706784641693164 0.13810562274607996 -0.03795130400887378
331 0.0339251930687789 0.11673085070120007 0.025293223252805242
752 -0.04963705574239293 0.09887015252137253 -0.16179951857877992
3262 0.10353229624428831 0.024589157956928048 -0.08531578184319845
1801 -0.021686081818193963 -0.10358171105381436 0.05083359987795873
60 -0.18146602541942486 0.04870580441342962 0.09691178161424248
1656 0.033247384743934946 -0.003568406483358917 0.087136664102606
55 -0.08051658584218407 -0.06670680785485193 0.07912446698506717
3198 -0.017730727344849633 0.32332114263457856 -0.0481139246360649
1361 0.020150656405069325 -0.037417088867458655 -0.02351002735884462
1641 0.083688563002002 -0.11152814135250148 0.20940441695965117
5929 0.07663897129668552 -0.13275143655692315 -0.020063592988630637
5997 -0.006964150065749115 -0.203560445002993 -0.06427401746067578
5761 -0.05102073502373496 -0.039694466620580515 -0.1172311316606305
5436 -0.04683546309113667 -0.1411482612234974 0.025452306531076264
533 -0.005297106320762283 -0.13383956098881877 -0.19042978603308372
5649 -0.025032030458954274 0.027979932071788435 0.01399442136922337
5133 0.020687390325993486 0.0772581301281995 -0.045019499694171225
3423 -0.11993787256637647 -0.004724314025905567 -0.07307104546935048
602 -0.028351014405504367 -0.09519821018490718 0.05796713335119357
446 -0.09125326771908332 0.09054479832168132 0.06124196127753576
395 0.10980410208108134 -0.12155263071136395 0.09320556493962548
327 -0.04744002056334782 -0.166589968572411 0.205690527203218
325 -0.0034522411563755206 -0.01558123364236801 -0.08216386042270116
54 -0.08220552216559755 0.10940945896389029 0.22371701536424093
621 -0.008198864279165403 0.15583215403328968 -0.15164013178331348
720 0.043813935307081296 0.07565610696907875 0.09879641065959635
349 0.1332320097588455 -0.08747560694479664 0.06795310950279693
72 0.1026775516607239 0.1694854848547024 -0.10126437656136415
56 -0.017457190976584568 -0.036312903549086624 0.058590330169575516
1523 0.06737841503467674 0.06671467260251447 0.03459888232804365
53 -0.0020220303805440674 0.06706432688598399 0.058285566762230304
64 0.12506408834372104 0.06299756953376023 0.003884333929759903
59 -0.06859034267096115 -0.00042150213169857894 0.10564442262402753
827 0.004439760408330162 0.09999526364191232 0.13928165177086516
62 0.03817908045692685 0.23929103947532143 -0.1159020826899261
52 0.11231963789442441 -0.030154342827748384 0.07074512188908524
61 0.11607986693723114 -0.10380298135671351 0.08060493001628666
63 0.04472061147522251 0.06788265574010985 -0.04992796884574443
57 -0.013161430676414166 -0.13655817809142112 -0.11743537386858491
69 0.0890725428085811 -0.15993456319709853 0.0338977101113082
71 -0.12833064875260855 -0.08304828877741893 0.10670281646323637
1302 -0.13207029705974557 -0.05104432436801398 -0.013835208264234965
254 0.10124315158164784 0.08653768006314876 -0.06300092911921552
5469 0.04242687815690116 -0.043824798893637176 0.028670866950749423
5874 -0.020909559839229083 -0.08870312458370522 -0.09846333203431003
5844 -0.1478796521138847 -0.12463131590048551 0.024876378645818285
5478 0.11154664392233739 0.22457954728027205 -0.05890740125115951
5541 -0.030674082746371827 -0.007946098855129249 -0.1549535468118782
2727 0.1431103398975223 0.037035866051088454 -0.004977298991149744
1994 0.041845871097810884 0.03692281269292225 -0.04558897650925178
5194 -0.007161168279139688 -0.026716203709810902 0.0543373576841481
2562 -0.02785057280274369 -0.039287522884952755 -0.03967806826351418
4778 -0.032968341318372424 -0.0711187109508177 0.11049960874053133
5191 0.07297212491537532 0.01524617066704656 -0.09384321890723903
1304 -0.04849015376291652 0.03186631446045085 0.04579804820670568
2114 -0.0978681662348862 -0.061831781796546616 0.04932352666279317
2125 -0.07736094404384997 -0.021352367028114303 -0.12137477982131274
2051 0.1123555313812298 -0.00538677702248805 0.03807506710944262
2640 -0.08265571003408771 -0.08669766672760978 -0.007291181166038524
2035 0.09472714872917791 0.047703052986166346 -0.060546533454852426
2421 -0.23328141394747548 -0.03970770383912404 -0.12174013941143087
2672 0.08624728022073795 0.003636828547532611 0.013817252652518475
2915 0.02643401187486567 0.10849099872785418 -0.04504082917276521
1657 0.07172271877565797 0.009230451871849272 0.10066686467250453
2694 -0.12626609711473313 0.01928451673808909 0.16664539514916066
2907 0.009104935297192869 -0.03467712643925168 -0.05526465081333447
6167 0.07417271199641247 -0.06862478039062075 -0.07307473069231493
4946 -0.12616231145417886 0.0428751050123969 -0.02854116660664546
3820 -0.066374268457835 -0.044790873769734 -0.04336534794869411
5417 -0.13336847015954092 0.10969789523169657 0.05634506652523169
5048 0.0004914733397398882 -0.20997610471035655 -0.028695762578753472
3563 -0.15708530819288907 -0.12641898306386828 0.15465627507901744
1254 -0.07817600268074776 -0.061050106558207695 -0.03314192134832391
626 0.07659313070779583 -0.08556567892184115 -0.11724563160342526
1307 -0.0070030724431400584 0.08057023664393236 0.0035496086306951377
2862 0.06355250818253273 -0.031170178719421307 0.007454032430185196
5300 0.07944513894885477 0.0375227341490441 -0.05404587540904708
2720 0.07687042829716413 0.005728097015311509 -0.03917138671103025
2192 0.010296101580316762 -0.025817285535237287 -0.06984718102776075
2774 -0.011423777343071637 0.017112776667611938 -0.045937704016977964
2088 -0.07763872982363512 -0.0013213253766099372 0.07599849061111928
1951 -0.005787508666415449 0.0717156646141071 0.06763207682270046
2135 -0.027587047081343276 -0.007421997741143223 -0.0817206232686433
2798 -0.13803455596423803 -0.14368105577669588 0.08392418433872899
2682 0.022451317955633134 0.06283228218143233 -0.1379862128869061
1563 -0.1189740960909577 0.027542819202643853 0.08522224715697863
2229 -0.05322712388363575 -0.0012231238343626415 0.12747034272181504
2971 0.06927409293296088 0.052448191177299104 0.14397800104127145
1719 0.14154027471916827 -0.09288603306335569 0.08641320626024862
3143 -0.15832207417404368 -0.05552989048737177 0.011184327719863357
5525 -0.10297418898513364 0.11489326788411233 -0.10658728125975668
5867 -0.09542673913437127 0.016134150315103412 0.018766861543020687
4809 0.10114979064135232 -0.040033393731034296 -0.0495062703968599
5698 -0.004886823814279465 -0.008534009788844513 -0.13715780580150205
1136 -0.017817700444018238 -0.07264172445362026 -0.20392231826974197
4812 -0.05778238254074207 -0.1490558657861434 -0.13497562769260812
3270 0.12159227156188591 -0.1193222083475629 0.001610073060445031
1883 -0.1839561545812542 0.09867902441314322 -0.02255212812577407
2619 -0.2418542406474895 -0.007644320989096939 0.034941763636799114
1120 -0.12933959219190874 0.10529317431825014 -0.11243954072459315
2124 0.013838751904311707 0.12237032904489675 -0.06035020384238028
618 -0.06338260851202798 -0.04223465881393205 0.03554783495335344
1312 0.048311014235361154 -0.0498976331728879 -0.13640510914670867
2136 -0.11161443873068469 -0.07862960709182353 -0.06142176868086191
521 0.038023117225255185 -0.08816164589178482 -0.009484936672764897
1340 -0.1173602881238856 0.005114365641055331 -0.20008878974770888
2768 0.013504377010644678 -0.04903346040599957 0.004228448700549049
1488 -0.06001456470400441 0.06862058669257687 -0.12151411648776043
2364 -0.07038612562348472 0.22528003754982023 -0.06810434375965249
3199 0.014280472341766094 0.00454278277877956 0.002542976976080479
2740 -0.094872132139177 0.03988761137722413 0.04262750443708552
1606 -0.11324765101553944 -0.15790634487719996 -0.18256650802032348
5875 0.20918565070760947 0.05694885518885096 -0.09053403583302992
5976 0.023480472905938368 0.015529228491633145 0.10635129739269071
5290 0.015606877192190142 -0.024162551821136198 -0.0683196085501092
4300 0.06335560911072094 -0.11847532167563217 -0.01987408856501706
3901 -0.08248604324468704 0.056479781479475265 0.019180634547123765
5465 0.08059082217362608 -0.032640535590526265 0.05816991051760436
1278 -0.059907013499489084 -0.03374123537309284 0.12407409794748747
5567 -0.08531657097405995 0.10970882824573136 -0.02680411227975761
4983 0.07977314922610244 -0.01944972813118496 -0.03469754770009921
2047 0.041862822127424405 0.18348916469719395 -0.062005100377043106
1673 -0.030869983524220733 0.013996871264324914 -0.08639543100157161
2446 -0.02581574963430664 0.004933610658275259 0.167216853291567
335 0.023938907331840387 0.19054249499403741 -0.07568377326023475
333 -0.0321686469593534 0.0991208060735501 -0.21983860539889294
3166 0.0020543932291721863 -0.06083404745704194 -0.10961966500210475
336 -0.05108519503766436 0.12729150893844496 0.06179832762038168
334 -0.03403427049212079 -0.08416918425099372 0.14217978837056486
3133 -0.061565889256809725 -0.04837312679189921 -0.03795459018674959
1539 0.027185353695527367 0.021773352484145615 0.11006168637711253
45 -0.049966784758317895 0.08655966035514324 0.06231119300479524
50 0.004609417317572969 0.10132386456051397 0.020929807965674823
2208 -0.08477146841547505 -0.08945638811268668 -0.06849137274442858
37 -0.02857445760807688 0.08565258761971756 -0.09874200511447365
3091 0.007321620077084284 -0.11695965111709539 -0.04487112712349754
38 0.04585367958721656 0.028907940210354897 0.23782614572709346
35 -0.012428524544812957 -0.13406405645809544 0.1528150581410842
6112 -0.1082136966890296 0.009267422106871714 0.05977773507629437
5437 -0.020942483405007414 -0.06585021239905267 -0.04973121303799264
5689 0.0037625011775170958 -0.05684456309339662 -0.0885888017018915
2578 -0.0014865685459005623 -0.03973628050832507 -0.13578480321742226
5485 -0.06883799900274894 -0.08337648920014121 -0.09818407479990277
5389 -0.14528745040914037 -0.14985949380130473 -0.06245808169624468
1111 0.00843865165472741 0.15956245414068346 0.1452702898138553
2838 0.06230183031046684 -0.005728529418814802 -0.007529262268964982
2685 0.0745184213507103 0.06182040464475635 -0.01990870894003456
1389 0.011301475996726623 0.08989702352821462 -0.08198299629795873
5008 -2.6139492829924116e-05 0.046774750169322074 -0.1411045279121787
326 0.007180829684104998 0.034198235441477265 -0.068672707691721
1180 0.05085839415513328 -0.0862601135312082 -0.0605513776029393
337 0.088913482537197 0.10160052696791083 -0.03869918799072983
328 -0.2240747846401921 -0.21676332436373807 -0.01664204325632996
338 0.03326160688280364 -0.024011706366911013 0.010777923507935838
339 0.044387028800210226 0.038791680482091015 0.03917239829771757
346 -0.10586574204513291 -0.08786298568435472 -0.0024419606697564473
343 -0.11159149313229556 -0.052228600007270344 0.06258140833974951
344 0.019841868655410252 -0.0009409717923233656 0.21931557791977174
340 0.22360657282932056 0.2927350774370043 -0.2983932100200072
348 0.12332094762361402 -0.16665978857793845 -0.1298271761781381
347 0.005686783232074967 -0.2540304570903032 0.044129169270779346
1041 -0.10145353165886964 0.19497818543596185 -0.06183422345356061
345 -0.1859328363396633 -0.06749119675595525 -0.06429592514275792
51 -0.051772635603241045 -0.09819432474640376 0.00561044237413638
58 -0.12649754117124717 -0.11541473150614072 -0.013216545554327486
42 -0.15771367300036207 -0.17606763767323813 0.002798790095298525
43 0.07078183616180621 -0.025673011433190798 -0.03282225822495065
49 0.08631930275037161 0.006754829427447352 -0.01320781938851673
341 -0.028275183333736242 -0.23700657581151457 -0.10608073287004843
261 0.053217426049047986 -0.020312637585281297 -0.08473166011776503
342 0.0337894125853615 0.00821710485177851 -0.026004126160111107
259 0.09707009885126595 -0.05454844770529624 -0.12681261591140355
262 -0.04359054499290623 -0.028067395523198067 -0.07952698135383598
260 0.06853248944951064 0.05568577819014484 0.07779090307409897
17 0.1910041410421954 -0.06347756671224958 -0.11086372981198632
252 -0.1135086149208615 -0.08775691261555639 -0.23627646730260463
15 0.04142277168508664 -0.1256575384101391 -0.15076974817778516
1497 -0.07895178671195216 0.014934226223189339 0.04092403544692584
13 0.10446589978261656 -0.12070125420438667 -0.038154347243160816
1784 -0.23335736795589723 -0.14483121858951561 0.03143021108074987
258 0.03581997768137276 -0.127147073687948 0.08117547770587254
18 -0.029333779034909777 0.1901485958002006 0.029729559305725798
1708 0.0403134923235591 -0.09611688678805379 -0.024938173702809728
14 0.09279770268445046 -0.09184779076911588 -0.039951547299750326
3215 -0.0538318836025952 0.07431994124478448 0.0979375813661704
5382 0.027056589321332696 -0.01640423702466816 0.15236825749729027
5371 -0.11879120492940784 -0.14385098643520128 -0.09103436075701953
5546 -0.08929865650375994 -0.05496617560474732 -0.03468253163768367
4196 0.11047671564669995 -0.052338148969192665 0.242814499765591
6058 -0.027727762363361323 -0.04152290295780812 0.15197294792244603
4502 -0.024154657234322724 0.16394091162495247 0.042312516129882946
2709 0.020182916616408142 -0.13647800566372809 0.0624663573913382
1301 0.01547218065579612 -0.0039963835926482665 -0.07460838047204818
5576 -0.2439943095013078 -0.058401626159792844 0.08456875962287143
5860 0.18842299676686583 0.09017391059592451 -0.024759295993410924
1845 -0.011619402208262068 -0.07057266256192773 0.10231595058553995
2617 -0.02028683443862337 0.011621438553786195 -0.04549695950719081
2614 -0.2051452451946778 -0.12036462383277043 0.058045970964140686
2560 0.08362073273356205 -0.047035677971462284 -0.10756618082384414
1990 -0.14772842791658006 -0.12002871220878587 -0.01684780519053752
4532 0.12880653667175163 0.08160531499532615 -0.041988039300440816
2216 0.08367638380509443 0.007646051986876182 0.19151135110869677
1956 0.03486045611947097 0.010712332777275993 0.035940119327882596
2650 0.20982754828300784 0.10339584817084153 -0.03479233810742707
2191 0.00017241242264558893 0.06929487476697249 -0.0019150211591217213
2080 -0.07893667446660782 -0.2814821218707174 0.03833424793274708
2267 0.04633775567920926 0.0449684247988353 -0.07218297182158942
2092 0.019591164052130745 -0.057423136968980285 -0.070401460997476
1947 -0.13504376859104633 -0.21910251385812812 -0.08132193235165515
5716 0.11878639888454745 -0.006986244160754867 -0.07378633909855918
3804 0.07131774510097305 -0.046847669584904966 0.10109336785734496
5403 -0.12914315634585943 -0.1815957395730543 0.07412974447638235
4551 0.027140874372623292 0.04860901692518864 -0.01817762948748921
5473 -0.017661507980464966 0.10543632307616749 -0.007040941128628708
2881 -0.2051331258341644 -0.1610652228047811 -0.07710156433312763
1954 -0.05851255510901362 0.09183452797015533 0.046702053738283025
5068 0.028803976241587644 -0.04148188806294477 -0.1436935797948721
2699 -0.15599961606741491 0.11376872303249315 0.08361726947355395
2110 -0.021855956590981787 -0.1611173192648362 0.12906624777639436
2065 0.12267585058715853 -0.20385656854854914 0.1495865088246221
2801 0.016775064704370672 0.005029065759011761 -0.02581528736370235
2038 0.012870928806469546 0.006086989836383563 -0.12131584340296278
1871 -0.022569074747281738 0.061111931475248044 -0.10403517016411151
1962 0.09274284583885559 -0.09000788479676354 0.03578603476001326
2123 0.06273092239241862 0.052363088376517944 -0.07647356553231824
1969 -0.052305691297328816 0.05521872837222622 0.12102092929608979
1944 -0.018957820077164445 -0.028676306246962283 -0.08430453768499394
2787 -0.038003768044472544 -0.052840727327317275 -0.06288883984613938
3464 -0.05377397172089762 -0.06707728872863741 0.07498386996573705
3883 0.06605439427084904 0.11881077193975675 -0.0033459199875964583
5810 -0.05559537180899951 0.07667363667210633 0.0011783965589781033
5167 0.06598013793055993 -0.09464185828824505 0.013753300651543857
5598 -0.02250357347644625 -0.025016729634792272 -0.0666257044788473
2561 0.013744118506600195 0.05822608199009488 0.04862927893197625
4747 0.050595979443035025 0.008895513633883908 -0.022292968058641227
3332 0.064435746490138 0.0856371558622502 0.007655743731259138
5443 0.004267436459847557 -0.033429982242078986 0.07749953157090159
2819 0.08042524489549348 -0.18313734719590116 0.10599186860956758
5544 0.13664609603410366 0.11763328939847509 0.12598362200578092
2055 -0.09829689854470826 -0.0286819449136918 -0.10457427079498376
2840 0.02434956091186311 0.13851388602748466 0.08969217525828552
5442 -0.05177311784335905 0.0209791578800131 -0.09292790363826388
2710 0.015739386940823392 0.021747482611009665 0.12056415125883586
1968 -0.09198456244526847 0.0016763775046486976 -0.03190654018638345
1134 -0.02727611068582951 -0.06021284078746972 0.04737806803611886
3078 0.0011568309770072158 0.09227243738289062 -0.013196765535213893
2968 0.038139082900983175 0.002661197789112989 0.1276610860573291
2951 -0.12018579084255702 -0.23391237422161554 0.003264588210571632
2963 0.07823862155363047 0.056349021157667184 0.06486551966350322
3155 -0.09919712666623785 -0.20111482070332734 -0.16269633492760857
1848 -0.0859351613043681 -0.024457120819301185 0.08721366069544445
3169 -0.021955273637042888 -0.08988244163453617 -0.09243684081213559
2373 -0.03254658872997171 -0.03338954589185454 -0.07298692076745408
2856 0.029572896703873218 0.058709087101932234 -0.07260860518765111
5450 0.07524380209891846 -0.018701106113851815 -0.1823872416638505
5905 0.15842297894093227 0.03195486664488079 0.058616385222493815
5408 -0.004135378649816088 -0.05177702769753783 -0.04089920957358717
2082 -0.12091776701393275 0.010289893441224367 0.05003764162910913
5766 -0.09986467112689801 0.132445231185192 -0.051623357467159604
5704 -0.052889215740631754 -0.09622528362915084 0.05882965831549764
3925 -0.07899044192817598 0.12547636120696717 -0.06538135700139566
5628 0.013118559871958334 -0.007600270372285251 0.16470332342723354
3802 0.057929307664018805 -0.034643618889689476 0.111186592822586
4142 0.033055330055279344 -0.2683424839100457 0.0901071774712929
6019 0.10835509524902687 0.07022690738397372 -0.031712346649989585
2767 -0.05538754025500915 -0.055944269581307965 0.08522073157235412
2045 -0.01596373980435986 -0.012916609388540261 -0.09313193825723193
2686 0.01816529929673793 -0.1131553887434078 -0.0034183440202248897
1931 0.002421129686662295 -0.08224933710272672 0.089393627191119
2688 0.05355958690142369 -0.08446085195856814 -0.08425646805484745
2729 0.12446428967988885 0.10106236160828487 -0.018108664845813582
1950 0.002059484064376182 -0.0015561974596320703 0.05858859514385132
41 -0.04537477115975415 -0.027922324487588773 -0.024979373516903103
1982 0.12857790611535344 -0.07409552412337249 0.04350180611051537
3225 -0.047723605961664806 0.09081120838292167 0.06463481102513306
2506 -0.010739219726894816 0.030703074756491908 0.1128139230701465
270 0.0039026603084658168 0.12659307222725122 -0.1032204282876448
32 -0.23825433708677843 -0.08631365557537389 -0.1446485140728641
1817 0.027923312017892398 0.018303465097927463 0.011935369952418048
39 -0.08158572962632646 0.1152831579976908 -0.09405018600485521
34 -0.1715803095560087 -0.07889325015897813 0.0663088270295041
40 -0.027827564449377472 -0.04540443300138785 -0.09683025555070704
3158 0.13404241008049686 0.12636274149483637 0.02855032224221217
33 0.051373020461623745 -0.09496371485676561 0.005282179522012272
31 -0.19007531336005878 0.0008796991806209512 -0.008868666393929376
5120 -0.0007594719360287661 -0.10043599048615884 -0.08397595899492352
5792 -0.06694819671101498 -0.10282194288325844 -0.07218273284997719
5753 -0.04262844727727508 0.03190058899116753 -0.02586760832960865
5830 0.007833933123589121 -0.044173503118354274 0.08391551849880793
5579 -0.009893607381284367 -0.05313498173751814 0.04967880684898547
4010 -0.055527006060910364 -0.009274396810985703 0.043545370374533016
3983 0.008707757209663755 -0.058784428475515405 0.0338104279588655
5933 0.1467857109085545 -0.09460737454706478 -0.03883401172871647
2723 0.024906542364692922 0.03705968292762068 0.048327357063989745
4143 -0.04075753623769057 0.030927736047551894 -0.021690033456837315
5118 -0.023203693375752184 -0.10425852987895957 0.027620116845922606
1430 0.0736116986831985 -0.13323189629514584 0.2632329009844571
385 0.17242887760752956 0.009848860517860207 0.08465976632679316
1875 -0.042880443861294956 -0.0020167061956288257 -0.01878949132509073
4141 -0.12644113622786268 0.08266695315909828 0.15915681565303444
2873 0.09796117627614809 0.139273684651706 -0.07846000299742387
2247 -0.03144785296490728 -0.007189294983761557 -0.12597446664054085
2450 0.16979588859066466 -0.01661620554337566 0.03046174106550984
44 -0.08464489150027697 -0.15216959818710704 -0.052809353736585046
264 -0.29755284086955713 0.06581167384230116 0.03409538518438564
268 -0.07608730959684594 0.19924530102018925 0.15311240762339318
265 -0.029021570611626305 0.1960057557127886 -0.06629196568324075
20 0.014671384869014368 -0.11539341975324614 0.04738121107066677
266 0.03789155415285895 -0.07316811500709958 0.07277698598369506
263 0.18069047756161305 0.02953568484806781 -0.036722374530694796
47 0.06559775434499726 -0.22921563410892684 -0.014174310421236038
269 -0.0019732466272479685 -0.019721070207971057 -0.039388240481505334
267 -0.021534665177643703 -0.035175688427076225 -0.027805727083691972
27 0.016297139230981875 -0.019433846421264438 0.005447135184339539
2864 -0.029717242270312094 -0.07086726540980287 0.14766938378391625
16 0.12207109147419404 0.07673681687404318 0.012450614890711408
3086 0.055385589319149706 0.009600327528113468 -0.038779811566804254
46 0.2771730424415509 -0.16704931924733835 0.013814598930623959
28 0.08871027242017557 -0.059495833559420674 -0.10790178918460702
279 -0.13130282494447373 -0.3968288024802653 0.1343362924833324
273 -0.040728254635414934 -0.018092821292585846 0.0301575965028852
48 0.1514874466432759 0.15985682112710486 -0.09497169777736934
30 0.024876718458447165 -0.11351726159807266 -0.132897246666272
278 0.10740961374901933 0.033173716590943786 0.011918574334934975
277 0.20647687551649951 -0.10003753590498349 -0.21874330490955518
271 -0.03571692790629279 0.13610245715121677 -0.08062453174978514
274 0.2228903115245215 0.034169275729671864 0.14749011283251484
29 -0.10285536477280856 0.02521581471329705 -0.027174893658157694
26 -0.014730140623958901 0.013054658948796401 -0.03647123827797317
275 -0.04343572764156656 0.04459197102531771 -0.02392778822914553
5737 0.17188098665480597 -0.0361784678724886 0.02298175186807117
5699 0.06992356292167766 -0.06863663059731434 0.05112921730423608
5451 -0.05628341896808389 -0.1686052892764705 0.029176525594806043
5202 -0.06553023751749396 -0.13501548649799847 -0.025045043978613166
5430 0.029512480827808153 -0.12720177397063123 0.07723581497186396
2863 -0.026751273845434523 -0.04441946584015014 0.042972209339148804
3604 0.07450447490704337 0.0846792852079809 0.12764923151772706
370 -0.0707661270353851 0.0026330181037800956 -0.14478768865120556
1943 -0.07281146963908866 0.19947922634792395 0.05011660448590941
5207 0.03515678959337727 0.22025212528709887 -0.0381574450929122
4773 -0.12233132839217604 -0.030884519693701293 0.07066627156241806
4199 0.06802178293179142 -0.05264589525822578 0.05828614059050906
1884 -0.04898478376366458 0.07604216179550002 0.08662491865629578
2770 -0.05822493050415348 -0.025065854982441543 0.06348739336382439
2764 -0.04034798032179454 0.20269158284457206 -0.08491871998343808
2629 -0.12794231016075358 -0.07829388306266727 0.11721852923954014
2160 -0.01949469216019362 0.07833339077157137 -0.08477602546474497
1993 0.060790416424249455 -0.004767032419151097 0.05562501118468546
2855 -0.050756183586231525 0.0929504189694985 -0.048357377072520344
2158 -0.08891097048785176 0.10844068955071003 -0.1768119120985928
2785 0.02252640331153535 -0.12841140221072672 -0.10038932989162659
2772 0.042375645690380735 -0.005477578067939189 -0.11270363822397456
2447 -0.019161958434097837 -0.003605072169838342 0.05483552423367932
2174 0.0481439077215317 0.02626713704398823 0.04051628824766425
2814 0.0036344186347420405 0.09108196120936343 -0.05241489594214145
1839 -0.004592294424942754 -0.0761028736762138 -0.030931843936508947
5182 -0.03649767882755195 0.0005119854458202466 0.07671930190846508
2571 0.08520436681202787 0.05447379003554117 -0.007839810189239241
5549 0.009124775708689024 0.04838586565946494 0.1069136979467774
5607 0.010116321544878062 0.09601168252586154 0.15117864810613513
2735 0.02159417507331441 0.14305016953725233 0.031756402145639885
2870 0.12321228326805926 -0.017326593837119632 0.09906556886971273
5126 -0.12096064725254292 -0.11235564188122849 0.16468818971523796
4254 -0.050620334331368144 0.12702623456912654 0.07306430003736743
2909 -0.004106815804054392 -0.006164343911362814 0.1246872922565374
1898 0.15403722351180893 0.022403544132467874 0.08048266891267232
5159 0.026145812831557216 -0.014410556870454005 0.047599883697263784
5002 -0.08116917324494838 0.11666698809931861 -0.02611663042429499
2575 0.09581315262344044 -0.13396933168460834 -0.09888735662962596
2106 -0.0008591556467836929 0.30705303349781604 0.16779378374854023
2659 0.02502689132140494 -0.07785976158498839 0.014843656028460139
2792 0.05034121081488045 0.028372338130334043 -0.19429839829043907
2127 -0.0648844542943044 0.011040278664064679 0.023398436869222543
2108 0.0010287819749086186 -0.11628439622677367 -0.04223321897149629
2868 0.03002728985854048 0.14262191441866334 0.09368977828336617
2071 -0.055052235403347305 -0.03697138087361408 -0.04793232533655191
2483 -0.02696402794678411 0.04898615446692142 -0.07742048110037932
2633 0.09579795091945298 0.1342907404338503 -0.05587136724552893
2790 -0.0842388254780019 0.019854892291503418 -0.016999386519779475
1830 -0.1719567712524048 0.00935600066653132 0.1261853560037147
5797 0.04072886014098295 0.028558195033169302 -0.18904020965074453
4011 0.12346731360440126 0.003019791905104239 -0.031505451508466426
5139 0.03227106784149148 -0.0072320858270435474 -0.1511860069570892
6229 0.030488730041581744 0.1022191175101383 -0.045593914977855546
4993 0.07551408364828995 -0.018723141862111027 -0.046437838795893464
4555 -0.040959398229939166 -0.024277514527130922 0.08389214308736277
2836 -0.04231853324205968 -0.06257998973104908 -0.01172680031629416
5391 0.004826240049399109 -0.013780421065363372 0.06579428043577552
2849 0.14959131577221133 0.05211957826108107 -0.03241847306220405
2706 -0.06736225970799493 0.12137666280841239 0.004414045422049512
2012 0.029188771377948494 0.03307012940323995 0.19374241724119234
2007 0.18726193806473782 -0.2002447514280291 -0.05797195666345116
2187 -0.02255080151937252 0.09488567814691212 0.16680843135578746
1978 0.05300820336098139 -0.10753384448377218 0.005384099301070508
2777 0.08142473087347256 0.11345497626725573 0.026156206762434093
2809 -0.16729270213427094 -0.07078139440310541 -0.11027400597920131
2134 0.01305132448597013 0.028310942233616777 0.043076502549191424
1924 0.2417891939284777 -0.025763776617106236 -0.014188818646724926
2332 -0.007733188552058703 0.08536414733234682 0.1604390225275502
5597 -0.07586637175302674 -0.11231690098415156 0.24021696614409643
5303 0.009333975231816756 0.16279721435393926 -0.08717999282515126
2902 -0.038887663541081814 -0.04244250974072519 0.15423222483529786
5660 0.0064673066325020186 -0.056648303743010116 0.08032039769266756
5454 0.061896811440064856 -0.037313521336684224 -0.023460061084550492
2810 -0.07455807814258586 0.006848397327380986 0.04910158657124733
2811 0.023350934810569664 -0.018389509270003046 -0.13769205883673497
2796 -0.04367976996393199 0.07441610700854279 -0.13146564956401943
2783 -0.004833029732059221 0.1246153423858267 0.006413403051101528
2728 -0.00348954153240029 0.09208779168670525 0.09784924913042743
2910 0.12656939426810607 0.09414922625186051 -0.09505594993839328
2876 -0.013817468888538013 0.03538054603040432 0.14446688796310697
2096 -0.035262057282791776 -0.0430648963496525 0.20160797675095588
2163 -0.045419579914637236 0.20989335615644358 -0.0524011197528427
1980 -0.01849708405480899 0.045097402831080935 0.05095477476290479
2623 0.057690601510745544 0.04048333396451264 -0.08189711004914078
2215 0.021651512606179445 -0.028731524413855077 0.14927535754729546
3059 -0.03715764272843944 0.010239098353244215 0.013724200732335516
3084 -0.008421382621853681 -0.24017160943796748 -0.04608582762998348
2451 0.12402860930487451 -0.10929979865967762 0.023369081363647917
5879 -0.02669786309664609 0.008470759907528318 0.10293530081645516
5559 -0.17878148921144546 -0.11555905908302036 0.02784595801049479
5926 0.06305568375880555 0.017783391602390026 0.020795571625675954
5464 0.023586341788103732 -0.13291470967592617 -0.09882453532114975
5476 -0.10847149548552767 0.08019625215187179 0.13250616667450196
1946 0.07032098962635067 0.011951686716280711 -0.024477604559041768
5722 0.00994036885482628 -0.09048536732113706 0.17033107192299543
5504 0.03526169244377038 0.018603747900954933 -0.055360005129580975
2581 -0.08609302214441052 -0.08270248504449719 0.20214473991703805
4702 -0.07199459369317016 0.015369492297926328 -0.04571856677699865
2736 0.008872103524405608 -0.01723043958702368 0.052221610214189786
2776 -0.13415773039715387 0.06371858654423132 0.09309642359094453
3700 0.07594892311362328 0.006896181483500464 -0.16819553673820245
2184 -0.06422497988687215 0.026632428892362187 -0.09692496472564842
2741 0.014615048983361339 -0.09122536799060596 -0.13998592192937237
2044 -0.046711126785950435 -0.0422452518878528 -0.05147491479087434
2620 -0.15558661287007014 0.08560136010373098 -0.11482309397186456
3209 0.022112385777382757 -0.011965763909193215 0.09381711219552516
2209 -0.08392620241665204 -0.0683635018063527 -0.02825421773926305
2545 -0.08145662859499217 0.09465702175470167 0.010313918727800589
1970 -0.04031922193632863 0.15369440871966097 0.06773150149810228
272 0.23524729842151684 -0.011260874430267246 0.06317622028568001
2739 -0.13552141451120545 0.11027355382777722 0.05364473290227942
6090 0.011573548523236828 -0.07695139593946096 0.02605593398464553
6111 0.1238081691876269 0.15510346217986137 -0.09984414620238807
5548 -0.06338650896665655 0.10399954273580539 -0.04816178515012605
3291 0.07011073656019257 0.1561213475136434 -0.09644144835674372
3283 0.033260370791944625 0.05163456375262343 -0.01774027094456838
3429 -0.08348278170826008 -0.04010280734933638 0.00016218812468692112
4794 -0.14056638620865125 0.02758144611153804 -0.0009654927838901248
2073 -0.1326994303123757 -0.030478337712215288 -0.1351628694313094
2748 0.019917665994538557 0.14828868743344661 -0.14272536460234686
1466 0.13299076612206573 0.17313365373321402 0.15668793045247953
1863 0.00594032241665305 -0.06263626814323704 0.1799796366871895
2681 0.12765115674743052 0.18650996190849006 -0.016258874458945638
2015 0.057178740711999715 0.03507779651697883 0.008515750382889249
2595 0.06226664632898574 -0.08846404571362465 0.06956082257121375
2803 0.17250124727974783 -0.059293013093860224 -0.003655030705498989
2839 -0.02469048004996522 0.0003331758390825966 0.028369782373703377
2690 -0.0671007551151181 -0.0801990705921395 -0.0024597529699270527
5595 0.09374676007948332 -0.04288918628676022 0.02189895943593281
6147 0.07635089787126538 -0.07170801258507918 -0.05794800628239967
4528 -0.13536526035403695 0.048314029803902245 -0.09229520338063782
5710 0.13978298600785505 0.0646559004145062 0.17571972372877995
5026 0.1155399148015836 -0.11938285706206246 -0.04161461017779355
1828 0.03097024708535854 0.19261313711028397 0.04150670838379057
2107 -0.0801360996976794 -0.12606379276503998 -0.06566267772372036
2806 -0.07178564848638791 0.09540210779555613 0.030058403637887227
2782 0.039572915066848305 0.024178690579347663 0.08630979929285261
2033 0.057175382008866835 0.09464385300659688 0.07189719687506275
2173 0.040463052450884426 0.041767263704949445 -0.08036336221832355
2113 -0.1705506412328554 -0.04261235101040328 -0.05804187467739022
1963 -0.0018116725086478984 0.12947192714458383 0.00614681803541511
2657 0.0536298253627603 -0.1665233582332372 -0.07143572920443518
2691 0.0916243568280647 0.19532205913698542 -0.033776318079234216
1929 0.051263831144878855 0.04689367010538453 0.1109553877013045
1935 0.12178516910738363 0.03605004365559812 0.014533603940015788
1894 0.16547041520109745 0.14382583430972157 -0.09817754590229837
1971 0.03510489183611738 0.025181159464651874 -0.13205430088543157
2793 0.0862123664961604 -0.061965431392769 -0.042943947939260915
1965 0.09743670399596042 -0.06984992536152826 0.08483790414857023
3008 0.017727734869114012 -0.016973661463468084 -0.04169759274963031
2773 0.04053084612442246 0.09312712458287503 -0.008242504621344758
5981 0.10084714272927632 -0.03625916398586569 -0.11004274557529442
5350 0.01032953949486865 -0.020336487649287693 -0.11536550673053204
5809 0.10042058109393251 -0.090594706160557 0.06461053919472803
6226 0.1518787358295674 0.034514925206183676 0.027236994320678495
5767 -0.03990119182531391 0.04487934583284383 -0.15392912034821157
2905 0.013945727667998713 -0.02025015616864185 -0.11290918181519959
2112 0.058852384703114255 0.11119612396641598 0.07118316561169495
4988 0.018709288953080612 -0.033154915499646 0.16029065377923896
2893 0.0921476129073146 -0.1294065826490163 -0.1535266007312717
4923 0.07774208152767449 -0.028465589702759145 -0.13406769546076824
2653 0.09179720921285162 -0.0722261912202699 0.04502944817751711
2898 0.014577816040765754 -0.015946130825993797 0.13146148855020595
2117 0.0886323354477659 0.05325569243561007 -0.016057429893844836
1952 -0.0756499575038468 0.07723938503081297 0.015606226253761403
1974 0.019199723920372006 -0.06498237557658743 0.08183360479715457
3024 0.06238017234745378 -0.12415928187424853 -0.18464874706826173
2916 0.05381071079965289 0.1343937534297605 -0.027357171416751848
2579 -0.08704597163172209 -0.021356115862115797 0.07239995244928743
2186 0.15239385775620204 -0.08406150438427251 0.18943335495712918
2539 -0.10669365357133097 -0.12411101377268102 -0.03658831070316966
6166 0.007308559961865614 0.005370049664168062 -0.05064579943943471
5817 0.0802782917307189 0.13487617293226425 0.1143135145053505
5383 0.04974335180490961 0.055496171677993665 -0.0089600357928149
2043 -0.028048974771544916 -0.05266386388399658 0.11741617336291682
5743 0.03288108628333347 -0.1271339878505037 0.08552947989579733
6124 -0.1379873843179829 -0.02334793068636591 -0.03165827257766346
4774 0.013095225269818885 -0.017900029245074407 0.1134805937920972
2101 0.0051728645841909605 -0.04689515086447 0.13816918988089158
2669 0.08111492182151342 -0.05599899121496424 -0.04256200919095183
1843 -0.037872029113647135 0.08342548599438523 0.008146195697096912
5123 0.03963592477702901 -0.1153838017722094 -0.0420275105568584
1847 0.12568658569076196 0.12938336572859363 0.008894051947891682
2137 0.0509108717587181 0.09862228438110343 -0.022120484359072143
3157 -0.032647167146117415 0.12939872185380014 0.0589394924701384
1966 -0.11881043602559982 -0.02288533705382656 -0.14077386210980197
2711 0.026923489799147188 0.14272891310365662 0.06728255689541736
2594 -0.19975550726622684 0.034629207890354834 0.042904188645101086
2794 -0.14228868805756267 0.12996020752316573 -0.040272083753133486
3190 -0.0539588025626675 0.07080175018261033 -0.044939467850123704
2616 -0.007869568769440545 0.044431709041976866 -0.1259591840560727
2824 -0.08610551774015476 -0.2440371457923058 -0.034252013161396394
5963 0.02990927432212608 0.03402128554742279 0.03920529915027572
5952 -0.036157978262690314 -0.012990831249431069 -0.021579229538063082
5666 -0.0897939804651447 -0.020888506526521564 0.09295330626874464
5415 -0.07526825647513613 0.06330865920673408 0.2303339150125276
5847 0.008489449054716016 -0.004051664478695111 0.12870894931058247
3597 -0.012761937829344629 0.0435636703404733 -0.09694710418082857
4400 -0.10555491995714412 -0.12365930702328977 0.18233209501965575
5210 -0.03718297366942488 0.0855824979697812 0.17156548370760966
3427 0.016459272613721716 0.0064159025110688325 -0.09788959857663262
2077 -0.04992447848375639 -0.006837798059729443 -0.05760541531560093
2569 0.023951874932813602 -0.06154242560840989 0.055812150726577386
2761 0.09018456224683312 -0.10313404740510361 0.12679696804637422
5077 -0.07045978094385111 0.06361088508961976 0.06428334089370501
2769 0.05571136800708578 0.03743525631794886 -0.02932547341302878
2598 0.011411775550781003 -0.13992127545548402 -0.08846206622274216
1832 -0.03166941507069881 0.03042831723098076 0.13480510366662557
1995 0.08877458526970528 0.16875725279979545 -0.10513573790527099
2804 -0.0837700822206772 -0.10198242886722955 0.04990417601541187
2984 0.0866545545648899 0.023585031468917383 -0.0471127551826276
2670 -0.007271215512610427 0.0010533859485098126 -0.14307740326385235
2583 -0.061038616038105085 0.17939044397743178 -0.12164294934793292
1917 0.08341486617888817 0.09818445525879374 -0.17167342011725853
1859 0.09564848424057265 -0.013851026723804293 -0.04046535125611049
5593 0.18294762031186093 -0.044096226893759236 0.08375137382626967
3702 0.1505249217500683 0.004743525215139353 -0.037298260762831874
5901 0.14070635639163015 0.008596056697090702 -0.06415034943927547
4907 -0.18063236593674672 -0.07160481301425177 -0.037907147249405845
5603 -0.0070278769966896915 -0.030626909601802345 0.07450250507503348
5251 0.08047099434717551 -0.10197896871980375 -0.05264515241326459
5137 -0.04118743455589547 -0.13884154903200155 -0.003408924701843735
1850 0.022389706004675384 -0.032700542459298806 0.07155886155602299
1846 -0.010562636616803976 0.009863543355694941 0.17673036804562436
5019 0.03622223665048943 0.0194895664690233 -0.007913543970630078
2130 -0.018601801039740247 0.01855258498983946 -0.04945578132260243
1298 0.11861089236996188 0.0848713724776381 0.08969686460385655
2177 -0.04753786131281005 -0.037216855360812845 -0.14116979332859958
2034 0.013387435068520935 0.059283118852339424 0.005389679892987513
2025 -0.041757636534898716 0.04611070635947368 0.05756393220119184
516 -0.010189243797383465 0.007494672126359722 0.004720692538936561
1857 0.12112024165424144 -0.10284891697883952 -0.08402353256121807
3124 0.05514375290706358 -0.045824295030539114 0.08296455821021026
5402 0.08327207892238746 0.24759448297028666 0.008631134336587269
5453 0.08484920152076735 0.07772942090819354 -0.015598825974880985
5757 0.007996361269130167 0.05297574498917253 0.021859561192160797
6115 0.21489966083817172 -0.1559452822734542 0.030740687054966166
5606 -0.0007803959978949313 -0.06534923706213536 -0.09107657525216793
2074 0.0452431411083837 0.059579295485063806 -0.026708870893882714
4206 -0.13633416152524622 -0.11886726875449383 -0.03443206782750846
2908 0.0787056590828725 0.07909035896221679 -0.11349910166352639
2028 0.0966772537426913 0.11819201269228558 -0.01347256838092983
3265 -0.07451648112565318 0.0606973571989593 0.10742747320028102
5005 -0.14307303310666358 0.007704685624739041 -0.02526997245114137
2743 -0.06290668114232087 -0.1557709643141612 0.14773663551197896
2563 -0.1762572155400684 -0.12769960047640067 0.07869060514074905
2733 -0.10003456999788751 0.12470962103531913 -0.14161490940025104
1960 0.012920939504572217 0.03239362340038992 -0.1345281255056584
2176 0.08606905910929939 0.024292302441847262 0.15062676374497577
2140 -0.17723754231982353 -0.057596892745182336 -0.0893587705856083
2784 -0.058183808632429536 -0.01644688898090065 0.19949696140275666
2026 0.11127570824413587 0.1752657013148844 -0.1063396736788744
2627 0.026021598021546317 0.16621394662107633 -0.014032098978364615
2701 0.02736219806743309 0.025929022733444024 -0.013961011554457383
1357 0.04206957943797961 -0.04850241873129034 0.06454358434835038
2712 -0.03337133028049989 -0.01838249219270969 0.03527444919961436
1908 0.01205021842912484 -0.015650101436753522 0.018110655355986646
1979 -0.180431491297754 0.04351550694991356 0.03943554366411242
2265 0.11306720496493124 0.16504440835731388 0.05304262831390421
2677 -0.049749850406964405 0.07978377494395424 -0.07814968925028527
2574 -0.03796093771341219 0.09629263285530722 0.05040858065779781
5287 0.08291341223674509 0.01461535098429318 0.01996340394659775
6159 0.009167464583666456 -0.07016204134107748 0.019277651915861903
5199 -0.007961491726886339 -0.01671551986149463 0.0033892215622010093
5799 -0.03128243522489939 -0.051864151715583034 -0.002184564674207126
5265 -0.039697920657784186 -0.03304826005016183 0.06971413910604105
3470 -0.0764908298243164 -0.052432379678625254 -0.11397332652233996
1841 -0.013754097519666126 0.07598437793640037 0.028498277707695974
2899 -0.013017942798286896 -0.0361925414882866 -0.06176912415203087
4473 -0.2806033277183057 0.1447483625819758 0.0862136527291405
2613 0.049813676210513136 -0.07548058519645755 -0.014827775773716984
1996 -0.06753679742851008 0.014708201834844116 -0.004036818209993919
2887 0.04222178327729051 0.14967584616622753 -0.1226845049512865
2857 0.12561057132219516 -0.18330261623410213 0.027846055945709037
1918 -0.11942590153787143 -0.020810748422746876 -0.03403454621625849
2599 0.062204915302269195 -0.009102952205435118 0.053907595844457534
2168 -0.03152152600068185 -0.03293166734849748 -0.09823674408277112
1355 0.013291311420347628 0.005447231061274718 -0.14165558407341933
6003 0.0316608228019319 -0.09194973468661195 -0.05622576443541495
5316 0.026660487004633714 -0.07684785080637924 0.0642589720190809
4524 0.07028262154979377 0.1081895287754086 0.13786201130688913
5584 -0.054501704413372036 -0.0005920533048039689 -0.05355037887169827
5610 -0.08264952990491428 -0.010998374469516488 0.07654843471444096
2775 0.18004065476640344 -0.1384681588993409 -0.03925621427698587
5380 -0.10051879513926106 0.008161455325898629 -0.017417783130037914
5235 0.12108580136667221 0.1392181082378377 0.14098957267104925
4953 -0.0989355710939877 0.10943672742025563 0.053741833658885726
2843 -0.023159575466197027 -0.05178818546546107 -0.026819419183378115
4937 -0.0014184632227802578 0.06476999949976485 0.12774510644030898
2050 0.0009699414958282858 -0.055493864919580665 0.029869914548073098
2705 0.0272515260442589 0.05914624568669702 -0.0003459801185525923
2878 0.03677155092335087 0.0788902500450783 -0.012236869331958326
1829 0.11810922430596295 -0.10614296156661966 0.09483453081593314
630 0.15035456447899082 -0.06490805262219712 -0.05128919743550839
1864 -0.07953533295356197 0.007782566915138744 -0.040144016785175166
2758 0.0923410333047704 -0.011493074969443157 0.04182690616461533
2061 -0.09788322394468552 0.004310536789795771 0.01874292200134742
1905 0.04903345680345514 0.07956350501880789 0.17731823727691218
2582 -0.0552948998579338 -0.12061575095160071 0.19601112159980127
2835 0.06796785477603921 0.1186678770234139 -0.02335166591214466
2615 -0.05265296324703069 -0.06115854958708918 0.005866679130520693
2063 -0.06536209145782443 0.05432685030392029 -0.07957725995061408
5449 -0.08243553032555002 0.2189225476487024 -0.0799127384153806
6099 -0.15388157910046582 -0.1361919629919665 -0.010972635838992092
4317 -0.004698239617518682 -0.02071689642380785 0.029976721308888572
5578 -0.012271939559293357 -0.034562951611129863 -0.046557112482840037
5561 0.1027476801740157 -0.11950643370238448 0.03582378628729995
3603 -0.023118954154876987 0.010186325156590882 0.0500642031738276
4212 -0.018300332881944235 0.12574212431244286 0.04501976078874441
4592 -0.17332781372368192 0.2684812799198382 0.11990117911067509
1401 -0.1297547958755628 -0.10412457065660888 -0.0661114184322253
5172 0.03666728881145373 0.03402277913721606 -0.03225840984564261
2833 -0.03694424605461896 0.020774429932313154 -0.11165729273405975
4998 0.0816609605794593 -0.06841950314817626 -0.129205917847138
2765 -0.05680916993180077 -0.0021212011951795423 -0.03809257180969788
2591 -0.002967429472234967 0.04507117642148748 -0.04712771808115533
2122 -0.032489587113935264 -0.009032635552789835 -0.06267470274419806
2638 0.166077979133757 -0.11596634354148455 0.08105436192647678
1306 -0.11755084800893792 0.029756431263446646 0.029403804252268934
1267 0.10537292432503535 0.02054529096958825 -0.13562874113489365
2851 -0.006504597947705182 -0.009488925893632037 -0.15028102809835464
1853 0.04001559626792033 0.001994909846613463 -0.24060647520737188
2952 0.11612060154739519 0.0007313518052701334 -0.06312680847070895
5374 -0.05196151363878057 0.13071728323938017 0.14998628077391382
5803 0.01702954809089699 0.014514079494792134 -0.1174226114248206
5274 0.08105649183887587 -0.011445575620675042 -0.022748711078505256
6022 -0.013967072328311587 0.044613931259304844 -0.11865092870595535
4189 0.10890911432927344 -0.0035245353367935883 -0.04116354563148962
5580 -0.1805818332368759 -0.04970042495054404 0.039665361914189165
3426 -0.025248221285544215 -0.125362037840072 0.0692246191791355
423 -0.0018059654391509514 -0.10689357732815458 0.02662064447325814
4249 -0.09852167731532321 0.07692910739179959 -0.13180413514025138
5457 -0.04344571288851508 -0.0026002471103074645 0.1022620841297924
1273 0.058166743820159836 -0.023550545536516976 -0.09236249994650604
5333 -0.0631468016126553 -0.05299190425166908 0.039511015555890726
703 -0.1906842503879576 0.10821972107379352 0.10486395065322361
2631 -0.06469849950268136 0.020480643919635024 -0.044277761302013385
5158 0.02115810322205878 0.10351784657723256 -0.07814161414368224
2890 0.03144719305776417 0.034109754902413844 0.058488112728827285
2190 0.011967202293616417 -0.06108121113854517 -0.07953942600607197
502 -0.011323889765798106 -0.13345134157611366 -0.07739291865281822
2760 -0.022385912892327577 0.12314471586622647 -0.13744044577505515
5058 0.10181480322244282 -0.020480206205762068 0.16195894498404356
2172 0.2256425640426963 0.036493928809479007 -0.04796490684222315
694 -0.022732288400654322 -0.1383642843892102 -0.104613491162757
1992 -0.015091824253576611 -0.004530642014557103 -0.07205349655780209
532 -0.0570546937413941 -0.1339357599761578 -0.08459101819025544
2226 -0.007649658736126566 0.04802397593220565 -0.08199038354805274
481 -0.06815490134064348 0.019657469230611867 -0.1159357126746563
790 -0.04220903710032268 0.006491735950561366 0.0533375530582665
5591 -0.01991760782147388 0.11494095517376846 -0.011037139652277352
4496 0.09688302582311915 0.053678858219300574 0.24740834249526025
5349 -0.02676658805238552 0.0816269945231301 0.04767985166467158
5301 0.02417819357830529 0.1982638218725314 -0.020934528752895046
4766 -0.029127002487067004 -0.03720712899634308 -0.03361893399328597
5127 0.021345872226755803 -0.023199983425803056 0.12718888047224522
2755 -0.0918036719914044 0.06361541545482652 0.026854522709358356
5144 0.008949187567447763 0.12582624957309077 -0.02979676881989894
2154 -0.06854762370850623 -0.08258424015836582 0.01426042945481455
412 0.023935840300856805 0.06857910568853412 0.12987851342140558
1277 -0.07657584901491413 -0.09318843322334751 0.08626820596046945
4972 -0.011587057244663829 0.05455625697868902 -0.07806779253554132
2886 0.03127384274477582 -0.2999505242929203 -0.04184228807632943
646 0.06372666612970207 -0.04987256788945566 -0.1621801812872803
564 -0.1014638407646125 -0.13638740070515523 -0.040276047904037895
436 -0.024864745276677567 -0.06647599102649188 0.018560853757176466
1365 0.04300717207078421 -0.07636029801663821 0.28862061070914713
640 0.07075192378648092 0.09757201525720074 0.01348327882213187
389 0.1858613714900676 0.03959060635877927 0.0912562136736334
6123 0.024349244143129854 0.09172105072281803 0.03885200947311906
5571 0.12443445796421786 -0.09991021536936746 -0.024321251840188757
3439 0.10709892943048055 -0.07302728289171008 -0.07294131974054352
5512 -0.0682843745437888 -0.03347479718490046 0.11185981292290974
1375 -0.0023427354435527816 -0.03438753861432216 -0.08403640496160063
515 -0.15627695285879106 -0.007660946078178065 0.007730454428584652
737 -0.057242018947255224 -0.04614188636857573 0.05084702449967451
3907 0.0022403617914059236 0.09410088089073229 0.10931665886057312
1902 0.009883008865977174 -0.07479940510793422 -0.06340013819815922
1851 -0.023517310376330737 -0.06790129657663534 0.014644947534827752
5060 -0.010741309428366335 -0.13833397807797215 -0.04470309289586078
2046 -0.05643549816503376 -0.013915781752643172 0.08619956619493684
1443 0.07825681597351951 0.06747181911639505 0.00021809016021887007
2797 0.11596911125607105 -0.17087111516708903 -0.10355942746144967
2062 0.15252596963948037 0.08025427723362823 -0.01717801920509197
1177 0.05333690140956508 -0.06480241366194382 0.22198854995794678
543 0.01734324108106993 -0.03300322566139038 -0.019110601468764678
1849 -0.017925100894632548 -0.08919546931169667 0.03534213051027958
1320 -0.0016606331101204075 -0.0030807184290037523 0.09256406683239693
1362 0.0418454855493369 0.09543161388697352 -0.07503778366904353
2161 -0.12460924915398665 -0.045291305321486654 -0.11762980404954612
3788 -0.030171016016980266 0.08158587781709284 0.028686757009683643
6063 -0.054468452274139684 0.05933721975611501 0.054046748803843477
1852 -0.0668250063931994 -0.13996597057103355 0.041212545806946346
5707 0.14033155859407867 0.016767238746900913 -0.0946749851775675
5554 0.040481064568458916 -0.0003339310226786636 -0.04775155349471265
5339 -0.05788479820662952 0.006505296747661163 -0.10792080048809757
6011 -0.057517034419185424 0.06462169439205839 0.04966174344620354
1106 0.020049172297072444 0.00531776753206728 -0.025121189094276075
544 0.12527789037538267 -0.008025494097516066 -0.02978178635661497
1167 -0.07826338773863128 -0.06845577257824746 -0.04428417955594926
5519 0.04250226787529081 -0.007438971386888978 -0.010780783734332802
4217 -0.029254018484297498 0.17434364568402483 -0.05164491418573633
3915 0.13295289984186012 0.06175183217530943 -0.01653630644688709
1955 0.1390303045483429 -0.007088468225706408 -0.06207418986248885
5119 0.04988866828892812 0.14655622074462082 0.09857578909679807
5366 0.07852887653339657 0.009532892694566147 -0.11020564470888489
1138 -0.032350877476199594 -0.045493649444612316 0.03996701031653675
595 0.06687709447507054 -0.0007177400563150686 0.07510949344702286
1160 0.03526916078546201 0.10522216528852431 0.0186107641216169
1415 -0.017286113198738358 -0.09924402273064094 -0.02851346054818722
697 -0.13372927580267083 -0.025947951874752337 -0.03987012835254704
2641 -0.10464914385562599 0.045921245533577695 -0.0005634212622680698
2889 -0.04867489794635816 -0.0037974879028779378 0.047165584441776855
682 -0.11549262344020719 -0.023381564099622137 0.00948346026423496
1220 0.13707399627585629 0.12136558940003253 0.018540331137470657
675 0.06897042537237293 -0.0003770678565544305 0.12208607945272613
398 -0.027529103675769502 -0.11069986529027764 0.08410323642866434
1215 0.16192438886634836 -0.07799070612242523 0.013280799094351408
1461 -0.08525845506331607 0.06473434842501737 -0.14432135090005752
5852 -0.06456229512394641 0.009880815344856093 -0.01651494362800655
5623 -0.106441548697297 0.01510718044799212 -0.06939348736599102
4523 -0.19366132444532239 -0.05682489630246637 0.023044281400326112
5975 -0.07021037657199028 -0.11702697076266311 -0.0773325307214337
5667 -0.01042688519879523 0.013934741996965778 -0.18654855764484096
5586 0.05191690951756475 -0.06348089018571407 0.14329170968350516
3893 -0.09028018269916839 -0.27859954803106735 -0.032263261619170994
5572 0.004444727613170687 -0.09421136883734706 -0.017320718073031593
5379 -0.03854141563217414 0.14500519996042247 0.11833919594283894
1146 -0.1187051462508127 0.04532866740840001 -0.05120816203192067
1166 0.008745261849877735 0.008244808429830438 0.02846648700749751
623 -0.053461538178780924 -0.07144862240065253 -0.03711317479107156
1202 0.10048116514154504 -0.12985227567800195 -0.02202517251195356
5456 0.04757456741555159 -0.05912190305652355 0.013303590299025177
1156 0.04544579916023244 0.057268782756687786 -0.03668273501541344
3323 0.09312879744553673 -0.11191944621916455 -0.06184875587611329
2586 0.11981321452418651 0.013291611296034194 0.14550686008027108
4054 0.036142721052852274 -0.04664765525666388 0.05708379607496997
1231 0.049908363124772266 0.054314161085896595 0.07755775034574829
2040 -0.016369212817973468 -0.08308227526378692 -0.08266278609903999
1305 0.15024814586978508 -0.04717401711630667 -0.03904616742029962
1245 -0.03770801855662645 0.044529657888470166 -0.014453477675518796
1349 -0.027788604833732824 0.0179911213286794 0.15972246037934854
639 0.02323629171449798 -0.055431780373493875 -0.07681897158588087
372 -0.03656725176056284 -0.05590556983732521 0.13058831588825595
2823 -0.03990722240191065 0.2507344508558485 0.1502634680334757
1123 -0.09843423136649077 0.10257376810639914 -0.11644143191586023
5285 -0.010972073517375822 0.005855973054129111 0.0334112519218213
4728 0.014561512409890485 0.06586826987560254 0.010680933399192627
5258 -0.010055655230771936 -0.04535813161287577 -0.0734564455146696
5900 -0.08531492695885506 0.10927512108878047 0.05505483884935686
3784 0.03306003239118552 -0.10193557326476727 -0.11731458080580758
5564 0.028391733428397133 -0.04814966026267701 -0.10876213465617461
5625 -0.06080907023028931 -0.03998262731176005 -0.0039032896327494057
5857 0.0723620837886224 0.1708984679068803 0.14301434901321664
4772 0.09754326863328157 0.11595601314880524 0.29952587327754643
5804 0.021059195207352294 -0.12450111238957737 -0.10307702754490199
5775 -0.025035320469059687 -0.08650516318410428 0.08415255204866262
4315 0.06694983940495515 0.1699647202823082 0.0458423454415538
500 0.1219179402259067 0.002757751366755129 0.02877444869460943
557 -0.16117519980103312 0.05469957557280327 -0.010399645855781141
4434 -0.1227768103409872 -0.06316761413684635 -0.12671868075082168
1252 -0.08897570416047419 -0.015278813719570749 0.05970143121515378
1441 0.07988560569895177 -0.12764775100672446 -0.12055085865397693
587 0.019983812229081434 0.16606123451895197 -0.07061489222926119
2766 -0.010616534973758099 -0.02677261987089134 0.046844906633573546
1326 0.2423159636997836 0.025237743983979162 0.04379903160808281
435 -0.1768036268968331 -0.10582042817659629 -0.1444868092104404
1445 0.13047194527505548 0.09854532003615604 -0.043256979886594285
1011 0.06434201520632704 -0.08400749062257135 -0.019108061435813867
1035 -0.0018449280434101635 0.13078766096943467 -0.012146707261072285
6009 -0.11964017164011949 0.06015196445687182 0.09269722128355609
5964 -0.06253283478984038 0.0968590968606465 -0.07061466812762159
5854 0.12416279784513876 0.11264960664436426 -0.06188578050939317
3594 -0.05341168769671913 -0.10018876755307839 0.05909419886410025
4083 0.045129775336902433 -0.0006053496459220934 0.012472492449733318
1197 0.0938237455950115 -0.052072362656190585 -0.11929941960551267
537 -0.053395488066233385 -0.07154946207013965 0.10129406620811984
5323 0.07939372171503743 0.010339946774140466 -0.01626177741889703
3995 -0.009299110418842859 0.09355303527614488 -0.03511069476526484
5001 0.028313252991368113 -0.008613893921949342 0.09944198564243467
729 0.07357063029259198 -0.08217090111166887 -0.012556048512157261
671 0.07775775708851163 -0.0505490965865954 -0.031035119349395988
1179 -0.03282297137942872 0.011048495904176106 0.0461671014594769
1285 -0.0023351192476193296 -0.0060566183442761976 0.051991164439936385
1149 -0.016937479836479877 0.02919785037031631 -0.0034816789833578554
608 -0.032712023016425826 0.03685230978005355 -0.034936325514371536
499 0.18418097123960014 0.059702642845251175 -0.14865265666886834
2771 0.03794725364548555 -0.06814224646918994 0.04525731846670289
444 0.09334426777818475 0.019554178268384927 -0.05151102242129981
831 0.05883924803995657 0.09241246130045214 -0.08600507650233971
1367 0.010640917305736085 -0.10520467593514647 -0.024651828050654342
6122 -0.08274528588856643 0.08088508571551571 -0.04526623122085249
5959 0.029932805296549257 0.011166396260599738 0.08243256653980677
5509 -0.18176689870475474 0.0988104767255773 -0.06246432037380046
4573 -0.1885520012064267 0.14010748048100316 0.08349470871513201
3796 -0.01692447764420765 0.14694469344858116 0.2085323175641046
3329 -0.053758804179145595 -0.047824834325434176 -0.10027652499288923
5040 0.1701342602210122 0.17287818609447853 -0.05149214838371402
376 0.07185793396184131 -0.06498383620748104 0.0005017086190323497
5259 -0.014820858253851689 0.1440723729206367 0.09289400200853261
397 0.0229147715888776 -0.027086902427625 -0.13380537600534345
698 0.0866708483878134 -0.26331723971494325 -0.008602641978477871
683 -0.15300230146967436 0.01521649328401564 0.04808324603825544
5330 0.06907046978696596 0.037950298645118986 -0.0124977082687826
1178 0.059563794055874496 -0.12144424627204395 0.05399457531602953
670 0.02792494213155448 0.08896820681508688 -0.023294220369584583
590 0.021017205400369804 0.0047914367449016886 -0.021932223630442234
498 -0.16558745049564338 0.02188641289865972 -0.05788652290490934
424 -0.001917427665854135 0.053531987201533925 -0.04261921485356715
1425 -0.06396204328853856 0.014048995092126523 -0.17902729713267615
391 0.03761681300858675 -0.03365370667585223 -0.09728475502983855
421 0.05609856824768209 0.04397447048092037 -0.2038545645683421
1412 0.08480569992539304 -0.11679315152325434 0.11601524643099426
527 0.1920431482767074 0.06295380134850717 0.05377759138819407
612 0.09314211289689382 -0.0688458187538824 0.023329773114134873
416 0.010466412676402977 0.016179601090761844 -0.07604604318367901
4967 -0.06087422518270802 0.052460054596012315 -0.11678642767966019
5484 0.028415241631189126 0.031120634180362376 0.08479318934723701
4920 0.06627881203287013 -0.1173722905521761 -0.08714066982801803
3911 0.04926831158901632 0.10755312294515704 -0.03706099923177969
5240 0.06134772600718423 0.05533711817640202 -0.06185942024509637
5286 -0.06131414580317489 0.05772285732728402 0.005318589964427894
5362 -0.0946282344072803 -0.14994898620065494 -0.004577485774858229
455 -0.044601679179888845 0.04817923271332765 0.07054263569242455
664 0.11635078481645184 -0.04732852041786258 0.09129173573460399
560 -0.04365809797740955 -0.036893579005828916 0.03490301883665434
4999 0.08775324964260717 -0.11445136932026494 0.12409890249385598
689 0.13817814328220795 0.15237394402023016 -0.002696045780263178
1351 0.15759874691602055 0.24862734592904667 -0.02131359262996256
1426 -0.00227299652485205 0.01533980549479888 0.023122171672644624
728 0.019179905542818915 -0.02605040959620461 0.021363735739298464
604 -0.1047246201788123 0.08791206808856068 -0.034443878186476054
510 -0.008025041836644205 -0.13139570596418298 -0.17034965086874856
459 0.08945524408418054 -0.0414237381811309 0.06951188941542993
480 -0.0030662278568490946 0.05831711876552867 0.0009961256135150656
653 -0.08423952213113772 -0.13041070652442266 0.08185511151750505
5224 -0.10588806866694712 -0.00919585824501315 -0.051896484960943186
5629 0.07917467499315331 -0.05306143164173919 0.025638625315793116
5756 0.08186067182203552 0.12061968005848278 0.045909053836038854
5460 -0.05297520619253321 0.10349228567462279 0.028427697029332837
5615 0.018105429555452125 0.08631389537255181 -0.017560652510233785
5206 -0.08138567887499801 -0.13915405462558553 0.051268622140182796
3694 -0.0015298953796459467 0.06751792262809858 0.06934452100063473
3285 0.1572667860072778 -0.12418294926137344 -0.03638119531408202
1347 0.08544186638344922 -0.1381261892734755 0.1030648993947328
3919 0.2154567180048275 -0.06311691728366653 0.09479388153948706
1450 -0.02055754668389992 0.04724993852607566 0.06490424763778871
606 0.14855043755312336 0.07088144973754978 0.09580445664269886
5173 -0.1041219231891171 0.08029838934945 -0.20689046589698779
1274 -0.048841882583212495 0.14864327113648507 -0.17577050314835235
1343 -0.137664294364826 -0.0666086261799088 0.055220535820620434
1152 -0.003202065100423028 -0.015334969567964575 0.021066717016152637
377 0.12697077417643537 0.1814138496845011 0.12601855348652952
2895 0.005597679079308523 0.0584307180382536 0.06879944131976273
475 0.1429734158511368 -0.03506599153901868 -0.023121778673995765
1386 -0.03734968240651154 -0.09424178025864906 -0.1864036666439519
1324 0.27088737594522355 -0.05108360088217739 0.0086557810975482
5697 -0.02491509356978616 -0.0031588445811286583 0.06590340009442812
5937 -0.12118011297878885 0.011667088185005905 -0.10492360042187465
5977 0.09757878371259521 0.017289041654312158 0.1034205144765413
4139 -0.006963989475750972 -0.02198967360187118 -0.04209312635484953
3924 -0.005195715797802848 0.011160599082318645 -0.020306306467176603
6072 -0.0777150965361467 -0.0023854093524185802 0.05161088746572258
5334 -0.0874887035842526 -0.023268612689606775 0.05109882580852346
3330 0.08827833618238659 0.12779764754846853 0.14215037987848583
3462 -0.03738980335207476 -0.048674179096289766 -0.04732144777158921
5204 0.13243877033970833 -0.05640748228296003 -0.05639453780163613
634 -0.07977915327173603 -0.06819503810473224 0.1254378243117995
5062 0.1629338069699273 0.01678036149678124 -0.01188035301005793
5264 0.08335263216199332 0.027012520601811266 -0.1732170846686611
1095 0.15200846014782995 -0.07338303104596237 0.01257579453627332
661 0.21694913321310402 -0.015303061644667429 -0.13961813703031098
540 0.0034717766557426435 -0.07980766948075058 0.012621245345610432
1315 -0.1508964585589209 0.05490601626558189 0.004315512460113599
453 0.1949253697362221 -0.041280523879482264 -0.09904444605007187
425 -0.08432741985844164 -0.17623587969867122 -0.09811467758546619
406 0.05751293512128737 0.007952698099604267 0.08832237625669377
78 0.14656289825294666 -0.0012325369125629647 0.007388583280862391
603 0.03773600072755887 0.026194757015516754 0.023926434918167008
1037 -0.0844966489548652 -0.020524383537960846 0.10424664310953338
5528 -0.08153092022213661 -0.11692139168321507 -0.024192532907735056
5326 -0.07838394028602944 -0.18561626432015807 -0.02910648206347493
4553 -0.03367265523355603 0.04488894726350134 0.008314004067724784
5763 0.11197050844104045 -0.17503224870243683 0.028807924689489835
4992 -0.1582462451509464 0.08181105832639585 0.036459423280502085
5992 0.06957903970976427 -0.02308569004259238 -0.14216844481514998
4753 0.14881975432402672 0.10284162923507245 -0.08245573875634922
4578 0.036551547855993155 0.019314700604882117 -0.21006848522788382
413 0.17094907261880044 -0.04120643140771501 -0.027448554288748414
1258 -0.020350491833618964 0.02455506277479636 -0.028330936085017414
5392 -0.0022876992350961134 0.08231926178331636 -0.1816243066274768
5332 0.056895024744750486 -0.017612649036437444 -0.0182161221945604
657 -0.06543591716876719 -0.03299594869611959 -0.14383755228778822
529 0.02354463999788195 -0.046037598941550975 -0.040328987759726626
468 -0.0730128560285587 0.09520974630378679 0.009939860040678594
399 -0.0024110977601299113 0.1536155885798581 -0.1151883824216583
1311 0.028745407432360835 -0.14940226796406786 -0.1303825149403759
440 0.055637061156631175 0.032688230339620455 -0.04480243112233583
1006 -0.14379874656467037 0.04100868282789192 -0.0036188393908480184
987 -0.011597974657220757 -0.17663435343189077 0.10744494615459835
901 0.10333067205313438 -0.04262823508268917 0.22082953894200283
5275 0.06196587276768247 -0.0945352857863996 0.016453915052186577
5280 -0.0002653186465892826 -0.040451684141236496 0.006766656639106061
5770 0.05056470412196704 -0.02514642066939897 -0.1345894796911685
3829 0.13214114191691598 0.03312306418364598 0.12834700703753005
4062 -0.03733667418868997 0.0958385387553987 -0.018179715493206804
5539 0.07968205976399793 0.06241985906673278 -0.050739956355179194
4075 -0.06991906352870181 0.10802933070439623 -0.06756977436651018
523 0.0031935926890353655 0.15189143598559135 -0.10296815569752757
4557 0.003367972828568263 0.044423228401376545 -0.21271524675403752
5346 -0.03984142999836289 0.019191302758902275 -0.03626004495983572
676 0.010991342097582756 0.06598092546088222 -0.22923471364275097
5566 0.09684796355355581 0.09872211717908716 0.09990083987805562
471 0.1631176318665725 -0.021126729772920388 0.037620861097360445
5372 0.22479054386143446 0.05636790500488277 0.1339922771885643
1387 -0.17879740834943816 -0.12868849247877956 -0.19519176070452005
687 0.05515533383268478 0.1074619627547104 0.005518121646985737
1455 0.14268580389216143 0.04630256937126072 0.10024481627406767
1188 0.03337155202157704 -0.03020521607384877 -0.010943518257225575
1456 -0.21570580590028587 -0.07092942916422587 0.051173501902954624
563 -0.01479996856371733 -0.059059415627189055 0.043487082707474804
477 -0.02048075016051666 0.025051734319790474 0.07677445724522683
882 0.1739146110628719 0.26124183061572054 0.15916720013165972
494 -0.08895326349599159 -0.1144791495261569 0.18352064326177253
5876 -0.07363179176431521 -0.014304673418451829 0.0590836276180081
5790 0.02668132540509039 0.06438646059987703 0.025713349868199526
5413 -0.04089904076835048 -0.09012437971929542 -0.14640636582393252
6076 -0.06871152953892061 0.05796651314415879 0.010034681540057802
1284 -0.1968112136658173 -0.07504395834970208 -0.0721911507972042
4911 -0.12046894485375073 -0.159603982285701 0.12571789189825486
5181 0.008697968717829904 -0.014247760600448304 0.021117252787487557
4973 -0.0394557991281799 0.027231809652237607 -0.15454620101532698
4527 -0.06725629099328001 0.15388696182222994 -0.1144132312476203
5174 0.0354436130315465 0.03658994357006584 0.05652703362821364
1414 -0.02995274936854798 -0.0464847849464821 -0.09154975779860838
1226 -0.11206580919181389 -0.05831426695459412 0.0638597916966573
439 0.06278011991923643 -0.0118938335072716 -0.028566168825065606
597 0.06379335973140982 0.19197911290011035 0.07030147388957593
685 -0.08409482760837955 0.08438016721220429 0.0021332661242702
462 0.03432927272378844 0.1343728987074393 0.0010271045385612703
1462 0.007703791632746938 -0.055125079728619644 -0.04741740022476772
666 -0.005162594481881444 -0.022352439075112803 -0.06057279600191919
422 0.08001136563626152 -0.05990556657084642 -0.11636532257377533
505 0.00839686099972077 0.21939593823768275 0.06316068655125451
583 -0.12787889700042612 0.04675915658032705 0.0079343289270193
607 -0.03412415595499003 0.014230165120009693 -0.10350375025172653
5612 0.09483123177286737 0.04770930711467484 0.03935758476154084
6194 -0.14575575239036356 -0.18312824855656196 0.06804882221727472
5882 0.1318692204921062 -0.04638375527096823 -0.007510066101190389
5783 0.1683468986969805 0.08356117528290805 -0.003085825425992318
5919 -0.07316291731488657 0.016389629829483353 0.038237193948983894
6191 0.05340061506080422 -0.12117979034099056 -0.09539541012810401
4996 -0.043227513325597156 0.05154903220383091 -0.035204081971768345
5823 0.013748113535148066 0.08942811848446142 -0.029488098090689484
6083 0.050144676893066085 0.0671678021248128 -0.05832486580414068
5057 0.05276477670014916 -0.09836389996100087 -0.12743447761914806
1374 0.030776806375356576 -0.1324164269175817 -0.006759321041649991
531 -0.05058875080846864 -0.1206689131754299 0.11003390428391639
387 -0.09066832043525308 0.022105307062526374 -0.0758092154469397
5004 0.18940886246681413 -0.06934138757830485 0.05387679334185569
375 -0.11793268911646942 -0.004669463174258228 -0.012903582075578346
1369 -0.016264924216656228 0.045533788538627454 -0.03834265855351855
479 0.1870896654895732 -0.15576693812289905 0.015119766128254133
615 0.06980661793574452 0.020825257284551986 0.11019536978242554
419 -0.076288924978779 -0.13268231639151834 0.03555756909162916
467 -0.05400573932649401 -0.15470473467747606 0.08291986327806085
1129 0.15326293472131744 0.0008156425630354812 0.04546265554728241
673 0.010501392234688912 0.06505143880102811 0.09855437602183822
1223 -0.027817167741322247 0.1569010507208381 -0.07632467077666544
1438 0.020853504895459483 0.1044549799275891 0.04149451588247105
493 0.073292816211279 -0.04713982203112236 -0.09665825508908253
6177 0.04125176683833 -0.10526536061454296 -0.01317465289960763
6180 0.059041414464487664 0.029257829671923818 0.03044439143912045
6135 0.04804531294846678 0.12721200011199418 -0.12290588234414199
5829 -0.12409580920251764 0.035935698570807556 0.20484415996565555
5956 -0.1997445888940127 -0.13476866460370773 0.06725143076741166
5381 -0.03607050427436093 0.10644376597255042 0.13245911058111592
3910 -0.010843980580336346 0.0027698996638784237 -0.2594118172862065
4503 -0.09608709667271796 -0.057476918586761946 -0.045798683071426455
4990 -0.125580332256532 -0.012583233887356158 -0.1691507812273511
1116 -0.020190589186908147 -0.024356885048621005 0.02337668082781442
5065 -0.02813547672896364 -0.04494097015307119 -0.11097610313134959
1294 -0.11803241068093241 0.07797754659102715 0.028274692706570636
1371 -0.06414557445030118 0.14377219347201053 -0.057641440592632646
714 -0.052478295405267106 -0.14456008152190886 -0.08415118344628143
3577 0.03527211186869747 -0.09911610867580652 0.06280635620506701
580 -0.017369591489759712 -0.01571720049101259 -0.002367051350296724
458 -0.0645013646497021 0.10639218751488518 0.06340360522403982
1060 0.18906523043314094 -0.08739900258199129 0.08123088496810249
770 -0.10408961285048188 0.006241662728953618 -0.10512130343860437
966 -0.1695194945879049 -0.11742815410184707 0.0025966948045382816
807 -0.02132478966720903 0.14969299610146775 -0.006672930583074874
486 -0.025727771219341812 -0.06886866206660758 0.11016737680915406
792 -0.007256676465243308 0.04732099560496597 0.12851457412025374
77 0.01359106254772584 -0.1186368297056745 0.07838399917330444
5661 -0.04550774928476613 0.07367108993215155 0.013966989828241329
5768 0.15678099370863618 -0.06343690164405888 -0.046364286918265565
5329 0.1997754632735274 -0.000781584343838973 -0.08298625293634675
6121 0.29300350527578944 -0.09453964721479555 0.03326666066064402
5618 -0.14880968615073753 0.054178568128939335 0.024223349238413773
5920 0.005804044637590398 -0.023796511184533208 -0.26300585536744586
5225 -0.09147322232301311 0.07366317515477452 -0.1830154679394652
5721 -0.009974299137177695 0.16937433431521962 -0.04919864602796023
4556 0.06588166309897515 0.033123614995414746 -0.1399630323917835
5338 0.000558560141110432 -0.007538842182838547 0.0805354914266377
4533 -0.13114781161281558 -0.17431409292035602 -0.06466611078673638
5171 -0.027808326357492454 -0.014284433264247165 -0.11681677587931583
4197 -0.03322541619964339 0.07605645785031521 -0.03265801821183259
4085 0.14585955443649176 0.017077246066744243 0.05070956685240599
5112 -0.176074215981334 -0.018993929588410088 -0.04241800219840299
3468 0.08603344616618054 0.05719204134495961 0.035321435063707086
912 0.14006193177087367 0.09204223452857092 0.028801808902991513
706 0.1239551068033693 -0.13725099495721088 -0.1794539511970402
1404 -0.04725791157411128 0.04520682150571777 -0.05969098806880798
318 0.10165956935835227 0.106713405127786 -0.07215889544285435
1437 -0.14053356755887916 -0.038376702861893514 0.03551823965974362
647 -0.18893765853251954 -0.10494001355867848 -0.016385724658052984
558 0.10802702169334504 -0.08237440477659055 0.048056129979741805
1447 -0.16762158252953074 0.06571836465179559 -0.09524538241789059
649 0.17474650439718403 -0.04636477462175651 0.04133643347582454
409 -0.025703736875079708 0.09752053090175235 0.007574675186077739
415 -0.02302877899921304 0.030098268955676657 -0.012548619744208223
5296 -0.02173330835155579 -0.053876606037205475 0.08888966380978638
5116 -0.10823989621368277 -0.01286132554855557 0.04957544753072618
5922 0.0019325619673119104 -0.12807064044232586 0.03070466979829279
5657 0.12360353274011113 0.011818525473523387 -0.09919051947720768
5940 -0.10509107614521113 -0.19380081642929914 -0.11454373782653784
3697 0.016289479001282546 0.10042761255412298 -0.09180188113182321
5574 -0.05552150883235159 -0.13517976562180561 0.05678350523031095
3554 -0.02627659027710578 0.0755572465565898 -0.09664021920032911
4715 0.010407340575304815 0.048069307050890714 -0.0015815427679511038
5762 0.0990680440356764 0.054154345011114394 -0.10018658128353819
636 0.059265511575015056 -0.1108722195863855 -0.051640333360978743
3832 -0.008999469773573944 -0.09530320094396744 0.007204538099998032
1107 0.017252576030885314 0.05411477735305885 -0.07070555158275356
862 0.02760158911964313 0.019492136292291795 -0.016077169625111694
704 0.023985866970192615 0.014333394874471463 -0.082207529581181
4433 -0.03759280723589445 -0.15583624115619563 0.044260522428925725
721 -0.04933791909875832 -0.09831777673755071 -0.0706404081181856
407 0.18743652176028536 -0.05372733221603576 0.052351317509703565
933 0.053840325533598195 0.14388261330654067 0.01686848572122183
599 -0.01970307268229438 0.023655724437627257 0.08301324540740646
1086 -0.04745702784698262 -0.029492679306933937 -0.1377951723387148
497 0.15216536080373189 0.007615566083456617 -0.1690000575985991
5444 -0.023160156648406753 -0.004226879445754464 -0.010941034395164816
5862 -0.020184688328702252 0.025101294841351936 0.022195210707508885
5447 0.014743822190574279 0.08916607361325114 0.1261846256449349
5614 -0.06184699318381875 0.11275774971158031 0.12125806571718775
5658 0.033564424177834146 -0.05158164512866863 -0.04336613336512241
5534 0.020846310251303936 0.18713277896562475 -0.283386790723268
5565 -0.01613743789365523 -0.059069402086499065 -0.008497753973877465
6148 0.03903327938919158 0.05507425104534884 -0.10640093382420857
4265 0.09882363691193086 0.17488403023403076 -0.24389565556185977
4955 -0.20972342308317052 0.006981014230760113 0.061462664805901866
414 -0.02548497140344926 -0.2487658777016689 0.13620706501657961
5051 -0.0826850217290414 -0.18080111208881552 -0.045297228419299486
5006 -0.013852365823819024 0.10813254503237468 -0.014726748752890097
696 -0.10074821969783836 0.08330446723740693 0.010158617992154746
1135 0.1019586444266395 0.152204129592358 0.08857011670494853
545 -0.0683820526515128 0.031456589520593436 -0.03976649308030086
2081 0.035765438496563794 0.024943848006056958 -0.05250751626834388
2091 -0.03903541425144138 -0.12141861306807655 0.04663601022959585
448 -0.03932820463510247 0.06614897806816702 -0.022598688997190686
1200 -0.0017446312786916704 -0.015378707419027774 0.15370865806197168
517 0.1198672576858432 0.17377710923157402 -0.05384322609696869
568 -0.007756061158189753 0.27505298353643415 -0.019605968783929877
611 -0.10390573587702132 -0.023712575764277606 0.005418405803670347
591 -0.09260109872419069 -0.038670388703329776 -0.06704106204209191
6073 -0.19754390297070695 0.0026655892260761486 0.10284280045522377
5418 0.0630130116283146 0.04499979278960977 -0.20851578273734758
6187 0.010395972380035576 0.01298323015146134 0.18131265907592922
5742 -0.027484818184561145 0.1866765485577065 0.001453451647352921
4494 0.00679587040980097 -0.20678546915131335 0.010162261197678987
638 0.06010977326532107 -0.06129654818220347 -0.14249003430386298
5081 -0.07169958764886518 -0.11249582061598443 -0.0862244393860352
5784 -0.1114247716533212 0.11155886318155817 -0.0163248356361241
644 -0.020536897156514106 0.16530758118881617 0.16991775399370462
662 0.02176744288372536 0.030374408175924586 -0.033942039658212686
1232 0.05162939599980051 0.08185532448108516 -0.12287281118525722
5228 0.013587408274613392 -0.12203570532176714 -0.04499236798235459
5208 0.021898884969721234 0.07637569659544594 -0.08736643895162792
667 -0.09347721321319852 -0.03257745823474838 0.11861668262746912
3795 -0.0336976461988308 -0.08356815526585337 0.0014247731816403961
725 0.04494199075042697 0.2621682117682285 0.12647956823835224
581 -0.004689466666820896 0.11327936364094571 0.04040424986742645
3711 0.14118768493618405 0.017065064734416574 0.04636677723326895
1209 0.00405595511829325 0.0420238497663305 0.049721840542848415
1153 -0.17796598569157224 -0.008467275517529786 0.06566716723538463
2883 0.11531193413461184 -0.05939485754044368 0.14413986115128744
1279 0.0006328919701721249 0.0955446477375109 -0.0565882269035398
758 -0.12704472644584183 0.111366701903101 0.031135459369004432
1290 -0.000554697455349534 -0.19835501462056518 0.0022556744263234636
6078 0.12233719307508142 -0.07407381229362667 -0.02697590511961796
5200 0.023248801475842993 0.19002397356264372 0.007038058330615094
5305 -0.08368330776127 -0.050704405321017845 -0.08781349724309322
6027 -0.026204193524637077 -0.08222229262607876 -0.03737985335943747
5647 0.11852458446547694 -0.0789433111331535 0.030213634724539737
5596 -0.0640841052409549 0.0453975534264523 0.059119854710344526
4709 0.056735223625750696 0.21723629184989396 -0.17517049772154902
5237 0.04461865578893041 -0.16332095436136898 -0.06540512911194737
4576 -0.021745915152112567 0.1202825077841621 -0.045148030821654334
4268 -0.17454976755439422 -0.0643505441260101 0.061639085338003136
5219 0.012445807938744231 0.1690020704471541 -0.12705465816573702
3677 0.06216730081981937 -0.006759501977224301 0.004089349393433998
2779 0.1577616447510486 0.03979066763653219 -0.024372379121678837
5277 0.04483814771591005 -0.13302327327400953 0.015848138169345435
321 0.163816217108827 0.10703571797989264 -0.014530184460367794
355 -0.03883504381001172 0.0541630883477716 -0.0975505445732849
2021 0.030587667908057326 0.08002483571458577 -0.04538378921704811
354 0.03434143386833555 -0.015961808964541243 0.04976252395032038
322 0.010759338995456728 -0.12208545525168717 0.07975635237112354
353 0.08808856429148545 0.016802463116356123 -0.025168172457693216
319 -0.20487364051452558 0.042153719198103894 0.0037422552840714806
314 0.22461306551953303 -0.13301934914894276 0.015551076041651391
351 0.02602712437632995 0.09643302856083265 -0.011231692237887756
66 -0.020496094064957934 0.07161419862321695 0.009290228250163648
68 0.055759808818555676 0.15739957924405876 -0.03726967090973047
67 -0.11155913492093879 -0.29664036037687175 -0.1463288284831149
352 0.12628603405670555 -0.014066002242573393 0.0028220791015908745
320 -0.07842020940959907 0.10239774386632818 -0.03931818464040911
356 0.0895399881239324 -0.1387275058377717 0.19342353337723267
65 0.04946577267766257 0.031273155737727897 0.016108333828526323
317 -0.009520794619990634 0.0649764439705303 -0.011564011774665673
7 -0.11312059391751808 0.06660569406947747 -0.11482733355982515
253 0.06208686022221542 -0.12268588095764119 -0.12286249309271324
359 -0.05705944949527416 -0.01626555153495971 0.016177865478412396
570 -0.12993910764339095 -0.10035111497747613 0.1300141553727032
793 -0.18103005369815606 -0.0021997170647386627 0.010729311002271378
246 -0.041952561193678045 -0.10438592201260959 -0.15530111713317055
9 -0.07204869719127605 -0.014386445156591711 0.04090999119765684
5319 0.005485767204905569 -0.043552573505308785 0.015076820359204357
4759 0.046571502716067546 -0.09868657082558974 0.01071150667448155
5855 0.02431691637867294 -0.09560153874304246 0.02021235851939461
6081 -0.023938139242003276 -0.13023437412420144 -0.025010168594382293
5575 -0.027242447770500403 0.04457501903059967 0.011442000123403342
5724 0.12914084572114376 -0.013626172065955353 0.05946039302808657
5974 0.09757837510344206 -0.22702686378189885 0.03804492455193531
5602 0.049364400737778806 -0.06717057569429939 -0.059206947088323206
4442 0.0490758082699258 0.0570239470733392 -0.07626664561676781
4905 -0.10324248630374398 -0.016329261130944198 0.1064494819557674
5322 0.14155896913692279 -0.02794710695066933 0.13229480842538818
4881 -0.13863814077142964 -0.09714611865797682 -0.11948092924754543
4498 0.0043304670160225385 -0.0287635257323789 -0.0496890829624337
4061 -0.01769156698365636 -0.2010066536994618 0.03468425603141252
5111 -0.0642769237518268 -0.023969194249121372 0.0032994096830336363
379 -0.2198109421080132 -0.04957998902165718 0.10785030225961377
5288 -0.10843745500291335 -0.06845249077284869 -0.04806753086304697
3722 -0.025294053642607534 -0.05558367412711171 -0.10595755904953882
551 0.002935381907242923 0.05276170749472673 0.021477212837006786
378 0.0491394020407153 0.013942665919235677 -0.06670080318668593
2597 0.08799368173257813 0.09562770354959406 0.1251938674595204
934 0.11014052611115513 0.041941135631513346 0.03585496102691815
249 -0.01788041302444493 -0.00798196590722027 0.12282389878381055
870 -0.0613730843208391 -0.07960636293780333 0.02018949066064835
309 0.06143897759010834 -0.03706868675700912 -0.10574739851912057
312 -0.011595149600543263 0.021417063728162756 0.013533806068279839
316 -0.09679070132230057 -0.10080486833451778 0.10042112275049293
315 -0.09726472229098804 0.0794875509597426 -0.05820454103855151
358 0.04388195560576203 0.02269686408046191 -0.00792430628385115
311 0.02452550211751841 0.009827154702590449 -0.06899310688345943
313 0.07363404715800242 -0.25443287971810996 -0.01503523711466777
1031 -0.07609772569876236 -0.11930590153226361 -0.04981413094446652
307 -0.15116831374176795 -0.022294339035369485 -0.020151283259569754
310 -0.05370513254265379 0.057462604854448616 0.12419528647814218
365 0.014089209709910438 0.23069516444583807 0.07730883952292508
357 0.10426534402759333 0.005185279149528926 0.07579772055653353
247 -0.23558716834219873 0.12274175841077073 0.04315612501257493
245 -0.11814013784674512 -0.0010083064617692282 -0.0701541147977654
839 -0.044845341039891455 0.08664223765183461 0.1392053579814529
248 -0.06964102175561966 -0.10404283874747543 -0.04329808498707057
360 -0.058956993100498636 0.0660443680988004 0.1286233884023441
362 -0.12736196893911983 -0.04327459938789672 0.003131931161741553
361 0.21719488334059592 -0.11371930040413473 -0.0826058300254418
916 0.13074015342273998 0.13328620480376424 0.02786989420953244
5702 0.02888661571389834 -0.0940558692961772 0.17144840702665554
6117 -0.0013265780174008795 -0.09446675139079642 0.024715318244922468
5608 0.043907054548066926 -0.05636994677433499 0.013875618535540406
5889 -0.16070157371997248 0.07381560114859285 -0.05830497886456761
4740 0.09738084891756968 0.030092942104861964 0.015725561931096095
4785 0.22552954497177163 -0.13180933900962344 -0.010424115690645525
5777 -0.03861778610873234 0.04122874456615909 0.07943329844948845
2683 -0.15378326037529838 0.027375212669590508 -0.1080910179998447
4696 -0.00961357273875281 0.07485720509888527 -0.12522307259150461
5257 -0.10062142001335815 -0.07160628281321124 0.007532560451030401
4429 0.08350910775334601 -0.06320173399957536 0.1570730862194923
5234 -0.04864494521307434 0.013112411509164756 -0.013984946040658574
4951 -0.02247529385838016 0.053425541943993515 -0.058991152237523055
1062 -0.009904439910571642 -0.029306079887534343 0.25039353065934894
5189 -0.06333212561409415 0.15402428973681587 -0.04901754916447931
518 0.038046702790502485 0.006404393463456823 -0.10058978126028859
629 -0.10880053122911346 0.12310028664322316 -0.0013742293848156145
1458 0.10605469258717393 0.07970963465597505 -0.08489684960847745
982 -0.03648224128665934 0.007860656082883902 0.16451260537424442
364 -0.024113810746007873 0.06766600921553456 0.1493690312469573
1000 0.02805905704045643 0.10126782953907543 0.0033033115199181317
5924 0.14822859709010242 0.14003600075792738 0.11754763668951826
6032 0.10110534272908893 0.027881043515372017 0.13245444843655074
6017 -0.03337386132151508 -0.008654389343386618 0.384453223461572
5978 0.010823261795174486 0.026694740763348754 0.0410800581228638
4832 0.0016437564219706179 -0.07272328236501824 0.017858535655010856
5556 0.08385714685909072 0.06186870223012406 -0.1640231244692516
3797 0.07315971733830075 0.052981271617499506 -0.06583854208404051
5439 0.12711051820581468 -0.001183053972369303 -0.07232056093235138
1289 0.12566367813114301 -0.08578329160997271 -0.05180363477889273
2610 0.08532427759226549 -0.08832574842067341 -0.04113371402278624
5138 -0.024774610470163855 -0.04800993296239811 0.13408024932023185
1262 0.055267428764328906 -0.034079565961307436 0.06923634670128798
1376 -0.28577050075176436 -0.018761197454274348 -0.08760042831641626
383 -0.07143436997186504 0.0707578877720735 -0.08718079898385649
744 -0.11649043274956529 0.14983494932358335 -0.15888493378896734
1130 -0.07928585436530798 -0.22209909955102886 -0.09027939827026522
1915 -0.010960975487325405 -0.04278983307947015 0.041106333971681536
2559 -0.06142586798352892 0.06890939569839288 -0.005879701200263314
466 -0.12359252608069551 -0.04358135801884871 -0.025652191464791967
811 0.05884847533510417 -0.04945140982902217 -0.01968332911966333
582 -0.023346136853790986 0.09825653664516483 0.08506447003290951
369 -0.08293649765896494 0.03702485881810607 -0.025292183494336345
5850 -0.007764460525853462 -0.11863864443225385 0.061881298621053474
6228 -0.009850248226378321 -0.1100836094213662 0.13683891962496736
5594 -0.07968864005742822 0.004995624216135017 0.12068982939854953
5732 -0.037652680687802406 -0.10338568578175218 -0.08695841348809075
5376 0.11418349227039237 -0.10332474977842157 -0.13693194284453078
5217 -0.012085605790983101 0.09093870893345933 0.05436987103747245
3450 -0.013800376035689685 0.26380561761872173 -0.22004570260970208
1396 0.22211193748656435 0.155529274425765 -0.06743084855540557
2786 -0.1179635397378916 -0.08545940880152993 -0.006082441080084009
2643 -0.07423335824977587 0.05254153794029486 0.1827042517848522
2745 0.16249071001186866 -0.03544542427202914 -0.014231855725783005
1356 -0.01426718778038101 -0.23770046618793966 -0.0884591453853387
585 -0.03396197020522654 -0.18068219874424363 -0.09255187893171996
2695 0.0030434267688148648 -0.0831400570911578 0.05559616475702158
2730 -0.018361298529468703 -0.040895604681385846 0.13312246815793555
589 -0.029885148250058117 0.06742989149119472 -0.08351162844429011
449 -0.04024214511290032 0.021807609931658006 0.11125137280467884
3610 0.011206731033611708 0.11228116798874084 0.047986566891646765
700 0.20841665830101314 0.036413889944960344 -0.04503300462818474
1900 -0.02477596015871143 -0.050426004452988116 -0.02858944167360155
1921 0.03710928916392357 0.031312696428102 0.042982295606222125
1593 -0.006273074256358129 0.0910676909586803 -0.10866167430964047
491 0.06843859211208296 0.01953095889850103 0.21854365882664872
3094 0.07177251344489713 0.20334978492735087 -0.0005010901700297464
2090 -0.031030651896372753 0.09343752623043514 -0.04447070325725691
5318 0.11070169503952008 0.21521470023095704 0.16504184292131902
5939 0.06654093958513464 0.16295221679724672 0.06926630788131186
5590 -0.1253868236671366 -0.0737326533189042 -0.14597628281726388
5696 0.1363473850428747 0.08772835474296098 -0.019271917061547867
5252 -0.06828229108250296 -0.0750076769387216 -0.13177100037408526
5356 0.1532121994965549 -0.11374521319090057 0.12251081489871754
2608 0.005060685211173446 -0.0849666721228716 0.00862999524560252
5569 0.03762508179943081 0.049123938796426486 0.014682600786262864
5055 -0.031007850420528837 0.04159786246448384 0.04356024184181988
3475 0.05186515224954106 -0.14828599852953286 -0.13723091657201758
2139 -0.052179303007170726 0.0179350709358704 -0.03105434267937968
4751 -0.07059464716403717 0.04122371257612142 0.11074029458392451
1190 0.1440036514651 -0.007134708624005663 -0.11320829651062887
2618 -0.07755388121968462 -0.02511695119687796 -0.21512457447207328
701 0.11245811262725833 -0.012256905762708756 0.06775515918009102
1826 -0.026877055801486485 0.23713452354250367 -0.026850544207476994
2865 0.07011037983156013 0.038432732748917 0.09585798104466577
5038 -0.05378009198023166 -0.05861992641892692 -0.021601652709351504
323 -0.046355764102648744 0.14137131280720872 0.1148588092562415
324 0.0680366613413404 -0.09310029394454133 0.05521361206545393
2197 0.08819252462868926 0.043865212113338256 0.013941442000299242
3180 -0.103143777909536 -0.04007710386832341 -0.07398162594239197
256 0.07902793505802784 -0.014798021385930296 -0.09261693233909632
257 -0.0005056890974014435 0.011429623524509377 0.192152810783952
255 -0.018870926473295097 -0.009899626490839687 0.12365488445687674
350 -0.09943083979760114 -0.027898778686837867 0.06832244137367735
304 -0.10283542791647232 -0.0904357962901763 0.051225930518187766
2555 0.06063105975725406 0.1105075090399647 0.021527029567553747
2511 -0.046432772286980305 -0.01156456699257116 0.045113371140622416
291 0.021350053309939387 0.1634346769603151 -0.03627483991969916
11 0.06620685067369517 0.1776669011724408 -0.21776781536536696
12 -0.08566388417643672 -0.045901554692725395 -0.03347451997077121
251 0.16021189235895483 -0.09387783843874432 -0.058477471518817034
8 0.04647944865087001 -0.04293628817208413 0.11567433630392367
282 -0.06795252501326646 -0.19597059138524597 -0.09499807946668921
250 0.15833656333414803 -0.07008070287351376 0.031121014889797037
5921 -0.02338420585485731 -0.16306878205154438 -0.15776368789394413
6173 0.07789800518712685 -0.07347285833595929 -0.11318297274991297
5820 -0.11935748958312305 -0.1640746079970466 0.07497926133442129
5801 0.07447956048589295 0.033466822019947606 0.07873080659517291
5730 0.1810531748329368 0.02427718438905138 0.06373099087550528
6165 0.019601734276668382 0.04573766034232053 -0.08545506547935018
4830 0.020703954340056424 0.02189091512743894 -0.07288092479742454
4950 -0.011553754183352031 -0.018447867694822866 -0.15335098144389275
4082 -0.07431651270554046 -0.07331164620842681 -0.05859090942683008
4829 0.04824190560889187 0.02618119972979015 0.11951359057277935
2847 0.10389300136299645 -0.15936795285506683 0.05711165089863679
3565 -0.07655099223653282 -0.041872298544299386 0.17612627407308418
2005 0.019545817094421106 -0.02977408313743172 -0.005317594693047168
2100 -0.08958760112276444 0.09032113551061699 0.021940905603506297
1127 -0.018398326064840074 -0.05727672396454777 0.1736483969964205
1914 -0.057171609972729416 -0.010589596222761122 0.15816136738546843
2707 0.01578060205929547 -0.12411037790405151 -0.10510484478826108
2003 -0.0600365966280202 -0.058185432534937215 -0.01777814884653309
574 -0.12163060850381226 0.031146135803742682 0.05730937556395397
1014 0.07367489725678118 0.057832997658431085 -0.03178200622056256
2357 0.0074300966534188405 -0.07023278183252217 0.06428653304960863
298 -0.1608814272259274 -0.08251016035170683 0.08369145673225939
295 -0.01621424715587976 -0.08389760889343689 0.015541241281631417
296 -0.15829890337367414 0.05233909914071512 0.025938092964264615
363 0.04648031317860852 -0.09481861144468792 -0.05843446246573801
292 -0.0628602515474689 -0.006165114803090959 0.013883249867584107
305 0.00924113987057955 0.0701245097219199 -0.2512976009029299
289 0.05494499656510208 -0.0020356768086187784 -0.31686969691123856
290 0.07643563095054873 -0.07184582865968117 -0.0740698589881903
288 -0.028248215489983734 -0.00129433471853064 0.19156919213753656
2254 0.13509224066472642 -0.01915944552762998 -0.031152966961105002
293 0.00797552889801533 -0.1589768405148404 -0.0061818027999327955
286 0.036862193995257406 -0.05980711729119622 -0.08707667239326074
287 0.06143172622724549 -0.1523428238823632 0.13090826741315428
285 -0.010554140393166104 0.023931539981310333 0.1429501960008443
306 0.022005951181117783 0.1800288342203021 -0.1576823258873966
301 -0.1466803081779907 0.05864872738036901 0.002043541256399334
5363 0.053306607977495875 -0.0910985077798547 0.07165928708232606
6116 0.011264075628479265 0.09221278343199273 -0.004073257002804025
5868 0.025171054620343306 -0.08704468104607574 0.07318404924887964
5947 -0.00883653931355785 -0.15298570484368304 -0.09225051316223566
6086 0.12368602995662947 0.14857265177517243 -0.02241749059070738
1873 -0.05565764801212771 -0.13876702040386377 0.12937314692701085
5670 -0.07409309966223285 0.06249240728735253 0.055431456234241235
5253 0.1034385332584754 -0.18499571873137563 0.09048750731111092
4991 -0.05660218322437943 0.0013118501341099766 -0.08515777502931127
4577 -0.04624788481713402 0.11415039686439203 0.04707814652053849
1353 -0.08331092223361637 0.05095355543425127 0.017021124362683403
2646 -0.08328979133497906 -0.08727259066072862 0.03020146384514962
660 0.07959238696157639 0.06795731144869806 -0.06876449152373362
719 0.04320944705697468 -0.02073498109963439 0.0025573791193163435
1986 -0.06289834569681083 0.25157034240537385 -0.09600228482222366
4077 0.06061857235049086 0.054601967047297646 0.03939174884065194
1927 0.0708430231764501 0.2559326031506155 0.009840279507547848
302 0.17591990125436982 -0.023616876323644426 0.09190337018972607
451 -0.08765608302854938 0.10947741579621621 0.05998620690022829
299 -0.015003938236574664 -0.15287757760120493 -0.08532578705794915
303 -0.08034711974933512 0.16688478694151376 -0.055918264635438884
297 -0.0011519678393033098 -0.049589581743000564 -0.0954330963467777
2527 -0.09480857600626433 0.07137384744179132 -0.0810260003523321
2416 -0.005871222488458991 0.09208712560228707 0.13630079588048397
1392 0.188555609381777 0.003137863195468652 -0.10302002180136483
1907 -0.016609689337202107 0.16984857029179248 -0.003293046752214761
2261 0.12584493913274405 -0.11932679996512507 -0.023725256159197208
767 0.1528144520955412 0.026284571844242852 0.08331328369093122
294 -0.029558185066900826 0.1479418138694095 -0.13682843386158214
300 0.11721110776133088 -0.13464109671169083 -0.09099485777499904
367 -0.34912433839795043 -0.053240297155002794 0.004805313443538138
308 0.09996362344450599 0.31555422954040835 -0.03333763625808154
5758 0.03667242298598211 -0.08169144733700176 0.029118296767765534
6234 -0.043249138021241904 0.07217022571079759 0.035339599839422094
3572 -0.16196585495814037 -0.06260767342539518 -0.23798812996725904
5938 -0.20444482016080784 0.09554621000240929 0.08658707781698918
3289 0.2381575046689061 0.0018113624080237432 0.015940027624738003
3586 0.045467893381032506 0.11948530891463112 0.006793001168906776
5555 -0.007089254843036857 0.1550031084173205 -0.0868258847529971
4547 -0.11291386651550556 -0.010057669512769717 0.13062213140904388
4877 -0.015542047608596149 -0.05090712002132675 -0.0359059963411944
5385 -0.2227451586130615 -0.06894143837762287 0.05048613371198612
4435 -0.027022424599231685 -0.030027167926901688 -0.17250048294606246
1861 0.12316693509172687 -0.09139784586145998 0.17833230077983606
4306 0.012402319378184319 -0.1351364966525425 0.024322686774233326
5495 0.050782118840081505 0.05988727340068064 0.04401624379114809
4939 -0.01971380651102165 0.017501859187564583 0.06722412055972563
3996 0.13423254400071616 0.11412939682214422 -0.09307792922759507
2752 -0.08460916192819541 0.042105249043172116 0.11256344537892045
669 -0.07483957310324746 -0.03890135123069202 0.07162707826968168
663 0.03115099330870373 0.008813159164184242 0.022609643746737875
2700 -0.007362166604146021 -0.29742136429143146 0.03960755547256036
2763 0.05824496894358106 -0.03332939268973198 -0.1067719971645058
2054 0.014907516830329277 0.1325925503964264 0.012125270929495825
2006 0.04465800965833517 -0.11770600525654731 0.050207814528134075
2380 0.139760096545909 0.0925251247843236 0.03780295089169436
368 0.07447866205512449 0.0806011053835902 0.09079629007993524
460 -0.01830987705798693 -0.021735890935146093 0.06667103015584537
5527 0.008199696464591729 0.08685661139515786 -0.03236390918142129
5821 0.07989457836802698 0.1523858127941564 0.04557658737438739
6174 -0.05215134218347229 -0.0853409913343066 -0.01461463136582013
5616 -0.03579415934803808 0.24012761495609627 0.09863473890005317
3566 0.055966664244707386 0.12754439618019422 0.09691613666149466
4395 -0.07810993226544019 -0.07968831589919127 0.1211908548183811
3816 0.04092034894912427 0.019633034543666755 0.14561662729180333
4493 0.02749991278696039 -0.02768168195351997 -0.03624878579113087
2718 -0.007281427080547865 -0.09025214500745124 0.07060745819961349
4921 -0.05679623652267152 -0.06956682580286963 0.1301633398351435
2693 0.06453772036533345 0.10026344682843388 0.052313163315810415
1363 0.05064923581936792 -0.15580902951628314 0.10552112349176623
371 -0.030994141970411254 -0.0497832397023313 0.07696921726626271
5526 0.009467268730446144 -0.06743246021831001 0.06492497757007178
1164 -0.050795762489809514 0.09271925433276491 0.0028664573306881602
2151 -0.08822696984059801 -0.01676703566913325 -0.031399391037913164
2584 0.09893453574669589 -0.2043800145887926 0.10143669384766085
2002 -0.1901076858736428 -0.11874697025368948 0.0014735147855577304
1271 0.15202809365754114 0.058652097877863615 0.16562247058344476
1170 0.0394266957361568 0.03025264853781756 -0.26243141704393647
2885 -0.0484299824375565 0.06431495857674956 0.14315317364748045
2027 -0.043832680643625235 0.07531403857218882 -0.07915827715891043
2808 -0.11869408793779389 -0.022148233377772872 -0.10718574124792624
3244 0.1427844990942236 0.026114074741972214 0.021564080453954197
1912 -0.050932119548585966 -0.018756076166755734 -0.09064382405254606
5846 -0.020075148721492624 0.16231136020753473 -0.06762494943744474
5912 -0.08039136110150814 0.04951993084278804 -0.0877083927368549
5807 0.006111735429657204 0.05330210081484766 0.008530926076053706
6104 0.06797557433625623 -0.06043214334538573 -0.10969129700599796
5835 0.09841264713430337 -0.04412250672678728 0.05256519537855711
6016 0.039300243598118546 0.06724470174357026 -0.1523026612373335
6025 0.021432823232437396 -0.002640400786387876 0.1687639771562389
5244 0.023236282541545306 0.004834337587171854 0.027914482879298513
3267 0.08323147319860995 -0.005875172739094693 0.057829499279098945
3272 -0.04242585234806714 -0.019206564265805123 0.019468279976218007
3552 0.08483905348996777 -0.138251641126201 -0.03499300635694909
3786 0.03734053199716467 -0.12485806422520061 0.11766910481858497
2093 0.13280045795525156 0.06122955157013717 -0.06239764711556947
1879 0.04773378816809704 -0.0218160435182117 -0.2519875808444149
2517 -0.10145754474404449 0.0648378212116131 -0.044953418680803325
1897 0.06452535625704361 -0.09259320982425338 0.050272983991123926
2322 0.01120285857300253 -0.06480767103419294 0.01948864118720966
22 0.014311238142358327 -0.17815494354942132 -0.1636772578803894
19 0.017653499090277525 -0.15354142694480363 0.19318873984056323
21 -0.0867852126271539 -0.04426042197553698 0.06949774018519103
1904 0.12881896453992822 0.08419791011490885 -0.13304504044723
765 -0.0408167070164285 0.03462319344703867 -0.05641181252691119
284 -0.09772636521609608 0.10155306676672811 -0.1297638905636457
281 -0.09407182032339265 0.06028076751097355 -0.1879973030921741
24 0.1553297662439153 0.1050904618473617 0.08429572788130132
25 -0.12443098928937091 0.05480558324323288 0.14532663753166913
23 0.20471552475711324 -0.10979111688903567 0.07601984740956333
280 0.13225087560379162 -0.046879473491104724 -0.13482522525633256
283 -0.39227471441942263 0.13555574815203514 -0.019205993319275864
2276 0.04408081768791164 -0.05872171865956072 0.02943583178710398
276 -0.1931674873772731 -0.12715196996193917 0.10337700830101666
6230 0.026986679349983445 -0.018357616855506194 -0.017872264751806206
6109 -0.04763328286310422 -0.15185885389418521 -0.11102646542374026
6170 0.035477217956734045 -0.03609937996004956 0.04448247497794357
5355 0.08497373722548895 -0.030465011851512486 0.019646058397795957
5706 0.23417141513184134 -0.1740707626915134 0.06943077538113071
2143 0.19143487968874706 0.014414179913497192 -0.015735400944543794
5294 0.05343689558462408 0.005866627054301345 -0.010898147422964181
5278 0.1722692582306372 0.09871098897884083 0.034022685216197
1833 0.029298240086317782 0.017043236259028635 -0.023956762826101437
3578 -0.02060621834700322 0.019338021696257396 0.04001750900604943
5411 0.04469874063360256 -0.05975266763648728 0.028961732318381575
2121 -0.21385840421414096 -0.04245815980437457 -0.0894538555453352
5276 -0.039344388393232066 0.13176200698353982 -0.023120505577393768
2607 -0.07288211410565047 -0.039345747461468634 -0.05107882149763085
2639 -0.018124755990218996 0.042033289194019455 0.03876563377089341
5115 0.13213495837312592 0.0021567939677648324 0.11921655119355934
2816 0.1660979885761053 0.018480408783104082 -0.142849092990873
2565 0.20908374829004758 0.07854568981657116 0.007824544533122434
4997 0.03982449284794147 0.1683730061793583 -0.00019790877128317698
2145 0.15562865828058664 0.13507106768149413 0.01915083766065876
2105 -0.0033407445975135418 0.07740747005704371 -0.05491491783553996
2671 -0.023582374840258376 0.22048044091067898 0.07617138313503277
2219 -0.0006065566713432877 0.09346127858584867 -0.01814470147000308
2120 0.07581925977567044 -0.06254664472727663 -0.04693192145906617
2516 0.007337356657653215 0.09380012215365942 -0.054663559432808144
5980 0.05620144215625919 -0.11008629356705905 0.06624495744148216
6101 -0.03945159356613807 0.10280605713914502 0.07870026757020046
6031 0.053496145340653105 0.011467766154864775 -0.02513857771093027
5404 0.015225550767427161 -0.034159832226339164 0.055526628910313076
5787 0.005779268098065567 0.00600324473497868 0.08200314841749048
5674 0.19635477757929168 -0.016349365239441284 0.03901721266678869
4216 -0.16905766631256075 0.06338356311611817 -0.02797007002352643
2612 -0.05906977541075702 -0.06788116442491555 0.11281556340102555
4825 -0.03134843983523703 0.0663443947392999 0.1781955250203416
2859 0.09145088275082386 -0.031727825001483065 0.042478568077709465
652 -0.0562561280927061 0.05921425328220138 -0.0036332786597497585
3810 -0.022602948165875037 0.05717233157849009 0.019050474389702685
1409 0.07005931835802771 0.14438900383032388 0.07401322598568912
2891 0.18721289590460746 0.12471238764430795 -0.031288958778304614
2138 -0.05869097022502963 0.05037258214060135 0.1531712431074708
2255 0.10697874213133854 -0.02880979542738577 -0.0034161687454468403
2698 0.09794379963568572 -0.0103452457839174 -0.00796887347906665
2167 0.012350232550386711 0.10461080416561289 0.11499834087394369
2060 -0.025767926495678318 0.00980711595112938 -0.026321167857369487
1989 -0.08663105423529592 0.14006756721907304 -0.03177622129789241
5873 0.08148057516444274 0.03600841868757851 -0.16689520829294685
5895 -0.023958380733249584 -0.07646369996191399 -0.006470691689583849
3823 0.13743809655615608 0.11853452755915533 0.16592328807037032
5361 -0.021882080604343535 0.036107423589937855 0.03513130634581817
5272 -0.030026502103877025 0.062016090762111724 -0.07656191266300147
5236 0.046098102238459226 0.18233390628553986 -0.03502209710707863
5003 0.08134331311465302 0.07765224023964909 0.12276044404632815
3608 -0.0928845510526031 -0.08488218900460025 0.07580055711761609
2825 0.15759284587006595 -0.1026938345097855 0.062319153438514734
5364 -0.055045259787047954 -0.02771248519277998 -0.2781968595050642
2016 0.05355101377165423 -0.16442038776158238 -0.01395450996111263
4917 0.05835194831037643 -0.07776285446846495 -0.11511675951573426
2175 0.0977440168740728 0.024047282724654076 -0.003560325706221032
5020 -0.027451446317843894 -0.06491036197916411 0.11321173902325682
1862 0.17719070185359898 0.007993703574998557 0.048339919372976874
3301 0.010741572485174884 0.19290176621165572 -0.07944917200558432
2778 -0.12137260015341092 -0.1546079258876343 0.024846560976809963
2603 -0.15739365555465143 0.03597622587256674 -0.13728988962053543
2667 0.010730530831238176 -0.025868845685181704 -0.010693004198483874
1205 0.024450057738888357 -0.13726863040556286 0.03692232535479303
2655 -0.05879628235257626 -0.055045101060938184 0.1021199745762548
2048 -0.08538995022653534 -0.005725723294318783 -0.03769321346474899
6095 -0.04194129715643287 0.06489797539752822 0.156926234421925
5870 -0.08699241651331349 0.01801587677136854 -0.06595960385939062
5435 -0.049846312416063125 -0.011121925696376728 -0.10596237555999487
5394 -0.18462623199222344 -0.07817476171728666 0.012740365341613179
5791 -0.05983942773357487 0.005879427503246472 0.10155022984840462
3675 0.013572478650444971 -0.04610486603907002 0.07463313926846805
3599 0.12521175489969477 0.06929508079259862 -0.07239841516380599
2142 -0.012989155814642696 0.023038488984962725 0.11205732742381304
5143 -0.041708235956200636 -0.07648095442272818 0.061523884084922736
4080 0.08449327781035815 0.18071557856369125 -0.005078838011208491
4640 -0.06920921976751065 -0.09682143579828723 -0.22704740807182855
2067 0.11393576034042491 0.14250975988159514 0.1343748904825915
2892 -0.14907295581095245 0.011248225103978599 0.011209487145909872
2713 -0.15260249335283865 -0.06327230792777302 0.0033266274886518798
1940 0.0016583805789259156 -0.1866838168461286 -0.06970700184543
1906 -0.01702608678993705 -0.20846823059383454 0.12434556559531873
1981 0.0006230963612295116 -0.050846144511008044 0.028872346887384066
1930 0.05618888785212838 0.07076156849218879 -0.00889812075430803
1885 0.04607185345105754 -0.1917143314666298 0.09041386326360532
5841 0.16486999156405563 -0.12550869475131465 0.030174784352664432
5863 -0.016505250332131217 0.0037631170136359924 0.23722810157696353
6008 0.0609604737845968 -0.05418891005513157 -0.23324145151804468
5701 0.08402176938602555 0.05940033788268067 -0.18310231086057224
5931 0.017488832365840267 0.023640698798523777 -0.0012799060703255847
5883 -0.07405380175169948 -0.08891365818180871 -0.16884965287725906
4060 0.08834829061550523 0.024176188296242566 -0.03486307419408689
5880 -0.12038272159788257 -0.11908745835586453 0.10518018097938817
1985 0.012028389217628358 0.01118893020683067 -0.07153639149036989
2570 -0.10763174557010691 -0.11531416761299952 -0.010056823500301394
1824 -0.16970057699411892 -0.04971342675029707 0.06739734075012072
1854 -0.04696958288950198 -0.017281853148500653 -0.18630368496636818
1872 -0.006949301880313445 -0.01873816974977177 -0.07358134005134681
5064 -0.0407819816628229 -0.08462772337077384 -0.08569443065408149
1988 0.08347620154212186 0.13052001850196795 0.006350180618928905
1937 0.13483769708451573 -0.07041288377860519 0.11043507467784837
2747 0.003988940227741315 -0.05916724400895342 0.047721495254750265
2696 0.09933375568866883 0.06264928416731273 0.050502992413669776
2159 -0.0015907270760825674 0.1362169433288365 -0.08953056808805376
2461 -0.04673387943458486 -0.20656323397827744 -0.10613111063417567
1925 0.16086284291062947 0.08464851133443184 0.02100793816005155
2548 -0.17923489520232988 0.13105664378741158 -0.06990957141767751
3129 0.08296642064001507 -0.0004477022926751978 0.04336925089692499
2103 0.08014455333411949 -0.09836935514791238 0.27442105665330263
2660 -0.014753904222027464 -0.07945762966633182 -0.016709627687175273
5738 0.16586997708565476 0.003385281461492401 0.09548615459747085
5638 -0.028760455369143453 0.047254328197169765 -0.015459231486140475
5837 0.022332277397239482 0.20835993029039615 -0.07080916282736843
5386 0.09863558170110907 0.05470493002284865 -0.08894779997468559
5960 -0.0077271791628892705 0.1812470935341035 -0.06810004102803319
3467 0.10896710280050236 0.08357719221307414 -0.06359514240058553
2738 -0.13970723905446453 -0.038600102402796835 -0.022148756110710377
5563 0.05090431864490622 0.12417390999214253 -0.023339996042666785
2577 0.00779519982818223 -0.1074481913107101 0.1345901872564329
1975 0.013547750213172255 0.11676268049866267 -0.07283480511441762
2590 0.09831317886038073 -0.08099171003073818 0.03218299911587892
2155 -0.043535203863491925 0.03546411257266059 -0.28371120686183104
2652 0.14195789838041079 -0.09003501432324373 -0.0928917931695375
2845 0.07495414098860886 -0.06819215100485458 0.037292273239120995
2665 0.11927592807658806 -0.06983518550843382 -0.06821941325892485
2602 -0.02552623282516218 0.1589041572437567 0.06668800117910739
1837 -0.18664634618951026 -0.019283499325490155 0.06213482548474944
2558 0.07119660731991832 -0.024013687570190113 0.2352706427523895
2624 0.18174015341094998 0.02028290053050261 -0.07904839211360651
1916 -0.12003770947583495 0.056250958574002995 -0.02476250848696735
1959 0.04878473545044386 0.04042454913040145 0.08200168742479488
5665 0.051417784966004326 -0.008645230096007948 -0.03251879957718612
5923 0.12834711253435857 0.02399895190080134 -0.05627844973150423
5192 0.045170072055285324 -0.13221841778840293 0.046209885268555864
5511 -0.026921240109337594 -0.11569555106740209 0.008699255665450458
5709 0.10812915876275861 -0.130941761268477 0.05786076744759755
5409 0.1467669236715312 -0.011039015959800485 0.08446181864645474
5633 0.1101722479431369 -0.043254605528648946 0.0416172902169129
5517 -0.11164639564278152 0.03010192807735996 0.05022067297623683
6158 0.007878751582374206 0.08568783553419207 0.0916984947689448
5668 -0.09789673809406396 -0.0700710617749161 0.02359956549707365
5297 -0.07848168978631892 -0.0313897244052742 0.016536455109052287
6089 -0.0023514393376030994 0.09031121791422382 -0.0008455376694211716
2731 -0.021095531828313037 -0.0352544902237028 0.1764233328184518
2632 -0.028709446509216665 0.13129023510980364 -0.08136723678255323
1880 0.04376116144234328 -0.030014975058527377 -0.00686961768472014
2076 0.006627764275550752 0.10638831533434713 -0.041162688087976705
2844 0.0636678147329657 0.019092134130170905 0.06296090993760875
2244 0.07820819147643496 0.08597012993781639 -0.1040936108856434
2860 0.08697608376690615 -0.01262895585105332 -0.022848635622777544
2393 -0.0675208130794235 -0.04868490229313742 0.01880346014300089
2194 -0.010839127255697514 0.09386604965228457 -0.0744351224613494
2072 -0.14104706853871996 0.17013341695727097 -0.01599018586882714
5663 0.012170504009429694 0.16250499946353794 -0.1833294071635788
6227 0.10611471371259829 0.08164808981522259 -0.06520220529697665
6037 -0.06316194376259415 -0.17440381450273384 0.009411016476004305
5851 -0.12866453302969655 -0.10561550934044238 0.04901437219657198
5446 -0.07908757011138377 -0.05860065429645569 -0.053347783232749246
5347 0.12591436903343933 -0.010754307977765568 0.003058224857151917
5913 0.008769928733507043 0.03740834589593608 0.12207925894129454
4065 -0.03648657793092759 -0.08691919000102713 -0.05818232334686572
1842 0.1156106779086504 0.14164137059860785 0.02650120393467793
5190 -0.09560977891969802 0.03858554086721298 0.15922862309535185
3583 0.11129846997335448 0.0929686296165002 0.06824597811531137
4703 -0.019506938017705172 0.09421186471914006 0.03990122440376402
2576 -0.08199033657781071 -0.13802945482397141 0.1298684892583867
5262 0.009520733918886368 0.11963061086151067 0.04633393591014639
1891 0.04543358713828446 -0.0621023456570597 0.0813543387877708
2880 0.16278771680129087 -0.09394936324823597 -0.062271704879643744
1868 -0.07564051180728913 0.013109024337823301 -0.21017537081125537
2621 -0.04902635443602964 0.026119374051571154 -0.02376945008086892
2703 -0.051411377483798884 0.00625250674973492 -0.059687373476552806
2626 -0.11310076880494072 -0.04821496481626283 0.016891993023966198
2684 0.04009895066391188 0.023590935918334055 0.023865098334046514
1938 -0.0065894789627383606 -0.01695308841920126 0.04399249026133498
2822 0.06219562872678298 0.07403357247102667 0.11775348633886584
2111 -0.10043404495572072 -0.041816923008130044 -0.016504544915401424
2969 -0.04818872594778831 0.05580311537944917 -0.17957843260050793
5516 -0.04756595336084521 -0.0498107385017465 -0.10133899309305207
5599 0.13269985520618263 -0.06444273138525372 0.12679783394257263
6071 0.06493566167912082 0.1621179190557822 -0.05474730287928277
4299 0.14887208795620832 0.03247611505187321 -0.030718517624741544
4470 0.0345482948340136 0.004970408097214968 -0.13355889176222707
6028 -0.048738796625949904 -0.08926035528877527 0.050447555484944354
3783 -0.05935161838427113 -0.08483811102830506 -0.010779973531530903
4925 -0.08485374107437545 0.017822965186823275 0.004210993522872243
3591 0.18768841967445918 0.13442231232788776 0.10008541552233366
4398 0.02503320237398162 -0.06370145747255068 -0.024602405933011894
3885 -0.07475168193276092 0.17947325872284686 -0.05247563416550978
1923 0.06415475435501149 0.13134099667386806 -0.08841980105472176
1878 0.03594899669692514 -0.03997201228014997 -0.07857484562466167
5056 0.10192011581729855 0.14772134690270414 0.01330083004365816
2826 0.14160811479034202 -0.024511781318577383 -0.15019173818182688
2008 -0.01988348973598767 -0.054925895906358706 0.17872383065271835
2744 0.04569355741511019 0.05096094878898112 -0.13709349183970138
1977 0.1314573589520755 0.01245585506587562 0.12297881059793259
2149 0.09030781657015781 -0.05985940609405719 0.08186572600121315
1945 0.06027677665149924 -0.14974686556381028 0.15426565335753026
2041 -0.029923037096174054 -0.07265832738804702 -0.047151889261318546
5892 -0.06938398423134556 0.11509335450710528 -0.021062944595810977
5727 -0.008312636425658297 0.11401610409598976 -0.006717863268367565
5734 -0.025785239295242644 -0.054073055059916934 -0.010250601516097763
5414 0.028591087036318873 -0.06692118297499991 -0.052661619720993626
5805 -0.2238880045041278 0.22843316177340559 -0.06977415056159804
6069 -0.02316269165853792 0.05618482555992668 -0.05355066729858875
6007 -0.08224993974731803 0.19770066444016338 0.0032091439777454387
2717 -0.13980938042924101 -0.066978470955801 0.08397687790293239
3818 0.18362027158444613 0.06850229605807036 -0.05265410550401059
1835 -0.034898991327414364 -0.17005443568433318 0.016455294292389788
2004 0.05075044966236116 -0.08502344086083266 -0.12629243080354932
2708 0.17668662104029328 0.21616269715314482 0.09582358177216393
2010 -0.12183047620429358 0.16775507583189958 -0.0077094455793968245
2141 -0.09621797497808632 0.0824642445951376 -0.1267934319172962
2179 0.013089884009917329 -0.003994068979455015 -0.05364524164352283
2294 -0.025596772080739398 0.051586700161424165 -0.0029233284945403854
2604 -0.12027581744405712 -0.12786024051589867 0.020778205079057525
2568 0.04974458319051479 0.007067124288101001 -0.04068012652088934
2249 0.11564784547401442 -0.07432671731209682 -0.16832317495280974
2805 0.008900972073039167 0.028245805165743716 0.04334403841412438
3108 0.060735660654194334 0.12235822647561531 -0.11725674544356877
2178 0.018013148492414924 0.05601181643267775 -0.02922892323731131
547 0.05584704558766919 0.046742853882740604 0.15496557347174333
5646 0.01985958579457134 -0.04328279191998015 0.0024223598537990165
3425 0.10276745540678975 0.06926446756162798 0.0005542284333619847
6035 -0.04506235246675819 -0.05716404752090935 -0.02966491015410041
5419 -0.10482597744679147 0.15222864907516045 -0.01258884596968935
5945 0.003578734131286475 0.1619672185058394 0.11786223996341323
5117 -0.005556724724719873 -0.0017187466365971554 -0.1041692937552029
5936 0.008845185154516717 -0.038336086562759476 0.015562855013430315
2132 -0.03430901955090863 -0.06442303763467765 -0.010530554708633023
6169 -0.26453999162847086 0.09921680169192265 -0.09051027927231026
6070 0.021544937926090916 0.06054771970525856 0.09383433911438561
5341 0.014168407971884685 -0.07716991083226124 -0.0997973357147158
4903 0.024624141110136596 0.007476690829849288 0.01940588482192667
1984 0.13774559030767364 -0.08665863230083976 0.042336477870190375
2642 0.032372142744044236 0.1474104388285248 -0.0007808770993119841
5293 -0.014453484886088401 -0.14929843821544614 -0.1879202704882776
5140 0.004743888075296906 0.1589852574198096 0.12338972945100775
5308 0.1484100935509269 -0.018396726038334817 -0.04146213200568482
2126 0.1630789971066272 -0.11979681895034551 -0.3149574650501592
2800 0.11596587028134736 -0.12987115154302198 -0.0948241581974827
5054 0.02731688228502304 -0.014806181321560398 0.014160665194988925
2846 0.10100808035526865 0.059568864800460856 -0.02804848967132987
2116 0.09362523779890873 -0.03867898811925774 0.03368034510540152
2662 0.04562966223889743 0.0417286758406984 -0.07158298900512845
3056 0.02199347881199024 0.019444697771627745 -0.05923717600670614
1928 -0.08426214073639723 -0.020323503066324272 0.04008670407704498
2024 -0.017253297796250688 0.12854281226768705 0.2354854931550328
3104 0.03140593234131256 0.06299419382161878 0.013457632202027118
6075 -0.05871083212692737 -0.10658674399060042 0.23863900721426823
1895 -0.058612520189359384 -0.14921614588976448 0.003963350038116927
6062 0.05026655386226231 -0.03399763741233544 -0.0828622799848731
5687 -0.14329069895395702 -0.12256736402346478 0.03886757488608078
2083 0.023736084480839456 -0.04109686397170016 0.09896844659801789
1922 -0.03558958444948999 0.07764837519245778 0.08403508530592184
2181 0.0069511153112781325 -0.04020170267337532 -0.04199537733291846
1825 0.12857543264450821 0.03599171216593065 -0.013795273368423847
2789 -0.08891186415401528 0.14113080199123929 0.1883906449364898
2630 -0.13026846706007789 0.10404279268444942 0.025933607632481776
1976 -0.04478767807594579 -0.09031749951728554 0.025606912039976452
2473 -0.05601074106478787 0.05107826639618582 0.00616128443313879
2018 -0.09969005866517898 -0.07622392487135739 -0.04870447226789436
1822 -0.13891535291219204 0.037467141704512916 -0.0465237492197331
2157 0.0513437017605599 0.10931920587246632 -0.05668289032176389
2853 0.06952553514408172 -0.02763396197320487 0.12157399960409063
2193 0.03429413091570231 0.022670008046373858 -0.05436906302379897
1961 0.10470679204678358 -0.013286458964612469 -0.1068395816056243
5890 -0.020583845776692006 -0.038041037352770514 -0.09019845856639215
6150 0.047560841495339366 -0.09231039307416952 0.11969386938354969
2716 -0.04023847109642806 0.01667581660659967 -0.07692200481606194
5365 -0.08756428552852576 0.03871569471650775 0.0739446675570308
5299 0.1361789505025755 -0.10411826781006726 0.19221750349030864
5935 -0.06323736607618088 0.13906850830580905 -0.028435233988939733
5914 0.013971411303572137 -0.13601891000258098 0.14094533869293677
5774 0.10347082755619862 -0.06546855763990271 0.07181421079924911
5553 0.10361087021754245 -0.004136488792437401 0.016443819512914595
5496 -0.12875117320733964 0.018243512341087575 0.02648444454126694
5227 -0.12006384332141921 0.040808706780010126 -0.04089245190752285
2017 -0.166796272494938 -0.21732708462369799 -0.04653997073723303
5076 0.04430110101889397 0.15090646254659093 0.07254575247607552
5141 -0.05801103897963204 -0.0591294757766847 0.14519712845219981
1941 -0.08016628861254997 0.04660367268831564 -0.014397169595293333
5113 0.16200408976754954 0.028110072564566036 -0.03724375125949965
5249 0.14241176767384797 -0.07954408731288398 -0.050754799269802045
2795 0.15450369169812792 -0.05396916973501577 0.003150377391975042
1973 0.05672716841926013 0.04025674301811995 -0.12504485622141387
1210 0.0027753107936483337 -0.07061126376775327 0.06915715508464558
2399 0.11767776176516614 -0.049794390840625424 0.15011726745767234
1299 0.03135880264634586 0.003138145887250199 0.04376245593844375
1926 -0.01980817880126433 0.018350466548500196 -0.06675198955668073
2144 0.013221197730538693 -0.01986574247792218 -0.0035944355949681806
5840 0.03441777950068272 -0.08083203457303005 -0.0584818789745751
5558 0.08431858944578781 0.13693071454792366 0.043297761161741555
6091 0.0720393629418355 -0.03135814439872338 0.17465983897657703
5676 0.1191706847350587 -0.01569261793677132 0.10506415225184076
5368 0.00694832158861549 0.01066901846917392 -0.02864054543104908
5226 -0.08040016513293655 -0.029124981017766224 -0.07523507734619797
1987 0.05413566303618106 -0.07479946294457036 0.008519657335388595
2746 0.08887434738057219 -0.11042343236705637 -0.09943014768842796
4968 0.0021702810441685053 0.05469127226554172 0.10426300994855017
2837 0.008562505289039603 0.06880873948697916 -0.18578130910754515
1242 -0.002080685011663839 0.08898960524446999 -0.017140728350189274
1840 0.11324582246080457 0.02407941116590981 -0.07063511733023001
2858 0.09514731146376773 -0.026724990742072345 0.2354240209839038
2078 -0.12833543884654203 0.06100660772732921 -0.03790939976103792
2879 0.03213462179134233 -0.028754989173487795 -0.09598571483319596
2850 -0.059230599196992376 -0.14019691026740289 -0.038403948008207664
1867 -0.06324260925940967 -0.0031027445198872957 0.0596576693399114
541 -0.104425717386183 0.06715489972627602 0.04964920398407422
2725 -0.021189619408366018 -0.04951157642987527 -0.03224406913551525
514 -0.04241421905471256 0.04854852669100093 -0.012707763018289063
553 0.2178601681450633 -0.058442372254909836 -0.12015798726834692
2171 -0.0182931318987212 -0.09372169866345006 -0.031743020545848606
5520 0.07032941951128134 -0.17235736180771596 -0.09404829016763831
6082 0.06946577126636501 0.09647729786503387 -0.023754035801952553
5744 -0.05251916433147883 -0.060649673809771425 -0.12946947682058263
5617 -0.13033255614216363 -0.07758494404971644 -0.19692155381390378
3588 -0.041583544438962554 0.14255614647090295 -0.08103426241862126
5673 0.12658809478076669 0.02930992917447554 -0.15593661481621898
5562 -0.028232568725738302 -0.013046425927083851 0.05629127288007195
3292 0.10816069413657664 0.10958599979598432 0.019724707039800435
2556 -0.1766299652386223 -0.025174962430802205 0.06559056135819102
3696 0.027367869989126294 -0.14066669520201774 -0.036980072280105816
1118 0.14370655747329977 -0.03313028473069034 0.024349203865482824
2807 0.03951430957403975 0.07891059627919314 -0.1118461823138223
2702 -0.07115453615950242 -0.08679159207698417 -0.1254256200816375
2634 -0.056813226597033445 0.03309276409869342 0.12113294468220137
2029 0.0007836131199883203 0.11916305385410475 -0.03357301031611935
1860 0.06363180498116597 0.1000420552187182 -0.05724334905146339
2704 0.01442096981312157 0.04134059565570986 -0.02582015189614054
1259 0.10889065872102938 0.1248779374887999 0.16276482644216456
2455 0.04011988410264466 -0.036573091441648664 0.027075259638923876
892 0.022860445507235795 0.10436377938876888 0.024789384163525538
5523 -0.017497022077100202 0.19440538407144708 -0.028634335566301333
6093 -0.07291909908356825 0.11699108232460265 -0.13509570098862295
5917 -0.09636880642258452 -0.08802779329634053 -0.062252425391636564
3273 0.07647917395464596 -0.01959300148144972 -0.05739949604022166
3826 0.03788353705785163 -0.07647762332606026 0.010408466821135253
5739 -0.011319407308712387 0.018237507833167643 0.024951475152489792
5869 0.01766752786281513 -0.19017161958255957 -0.038499516686856444
4679 -0.1360693627526167 0.11571978044446822 0.07340414147933848
6154 -0.012225592958789262 0.0002180515164185385 0.015564155554724029
6100 -0.0631308545314378 -0.07874299325488628 0.06764423277082265
565 -0.07937747975773049 0.24277621622543835 -0.10973135011077342
2815 0.111096159793875 0.012522007838401192 -0.11928107185103098
3607 0.06435209277203527 -0.052832699212707404 0.06756364405016724
5310 0.07714058850169951 0.17281377901011968 -0.10689481609495838
2069 0.07270879677905394 0.023778347414607725 0.09020677415734289
2023 0.14738714761329447 0.04506635708492482 -0.024720607755581703
2901 -0.015699916488750958 0.06303437119099639 -0.03926942762700952
2649 0.21290394131133103 0.06265437473925774 0.033683825953390485
2022 -0.04922635482181374 -0.03542206505037357 -0.14448696907190853
2852 -0.06159429469706594 -0.08778548476106199 -0.023340959226934473
1282 -0.004449776306559315 0.026934311946568597 -0.005618362333864445
1417 0.12408482710335543 -0.06460619332627086 0.020316248699937783
2153 -0.043291263925344825 -0.046461370037404956 -0.07056898556887756
6034 -0.04219304545251357 0.17507494232430607 -0.0658152524981053
6178 -0.01621008424044451 -0.11958580320181943 0.07922251649383551
5994 -0.04518953945791582 0.03564256591083547 0.011645646062554384
6023 0.018758880073282348 0.05190162859670021 0.025495461616559644
5903 0.06429428681611969 0.024805064956029858 -0.08120365373575375
5242 -0.06742265569133976 0.04188170690857941 0.013564927539573928
2832 -0.025585320798231163 0.10560929196416968 -0.07243032869991271
2064 -0.07484150756447754 0.0323535648468275 0.08484829894541157
2066 -0.00991326845572714 -0.04697489156889803 0.11817242422961384
619 -0.02276820920480741 -0.024673832271333 0.05240426349765928
702 -0.03179606729879235 -0.10714350416615223 -0.04468375990652617
5121 -0.07311240307117295 -0.13179487591934397 0.1092102590864641
1291 0.13115602899287135 0.06239864321871195 0.07951224281051641
2572 -0.06773423453754052 -0.07654606913871911 -0.024453569702253188
1942 -0.027721046709611945 -0.004556526058273583 0.03350882235340255
1911 0.15320220638967694 0.04808615629535816 0.011337949687727132
1155 -0.029906379570255215 -0.051689417840386304 0.03545061959676707
2875 -0.06875366260762668 -0.09530464320133326 0.021765147020360906
2894 -0.011398468026711033 -0.08864862979164018 -0.015454454897636978
2651 -0.00535109911475599 0.031728725936039606 -0.06004938929213774
1204 -0.13827914779841094 -0.07782043043191347 -0.21793401461758694
1183 0.12165330043240952 -0.16348379949281347 0.04160427408300149
1920 -0.022612728471540493 0.05434233719229843 0.03112620499276649
579 -0.032282292965302516 0.03164264226254476 -0.053171117285265114
5032 -0.011695588259777116 -0.05546482470026932 0.035706183936342104
5613 -0.03443809185613868 -0.03958013221069109 -0.004964404259742807
5828 -0.1711941262636442 -0.013974097429080625 -0.17889819837280113
4127 0.05941699715362161 -0.10548604254830073 0.028797091507126223
5518 -0.05090215821011688 -0.08073731736991568 0.09678788395887304
3903 0.05048202006670546 0.09313404044215574 -0.09572349398113639
4964 -0.15741659272707362 -0.05278797940822719 0.08902257982851572
1345 0.1221004978822573 0.0857388414800993 0.07604774255915352
2052 -0.05728252683707138 0.046213721862053705 -0.03417569645608534
1276 0.09703916881378442 0.11431966460552913 0.041359227730741105
2674 -0.001484037954399449 0.024726414306647973 0.14877366991431787
2734 0.13547258972808576 -0.06372622533039196 0.03807265215506386
2841 -0.08981290825904455 0.03741023024369149 0.011598608811707538
1855 0.03359924429302756 0.018740619565146333 0.08275911438183373
443 0.07107302327086251 -0.025816943096479597 0.020627615469150838
2866 -0.06133156855564803 -0.06638603869408362 -0.05544445423478096
1268 0.01023337617164514 -0.037615449852863206 0.04177052178632931
2896 0.08135428234302153 -0.10942332613596006 -0.1576088682223745
1171 -0.061056933871736684 -0.02907082648021559 -0.018675931387512487
736 0.08986991068028544 0.07491548877472173 -0.09136738836418057
1411 0.18175139191138542 -0.010325427736221016 -0.0877734020139416
538 -0.043086937901571025 0.06878056183677683 0.03397519949945526
5780 0.014370495357004638 0.09344295025226539 -0.14353111479968184
5899 -0.14833662364297726 0.008824778289825155 -0.05159352400519737
6149 -0.11985840813546352 0.008263529873520801 0.05473558201416516
5317 0.06958909712560812 0.025484014360969684 0.09854603127020957
3553 0.035627081395614504 -0.053562888764482224 0.02419849112200495
4956 -0.16523147117368833 -0.03920490800567035 -0.08417052017343654
4628 -0.07093017767617968 0.002563634009952489 -0.07513061628874905
4390 -0.03134869089738499 -0.04833223419708922 0.19223306011410643
5503 -0.11904587087451945 0.2711632683355332 0.1878622994661183
4986 0.14217627606069672 0.18163139792134939 -0.15766111969432683
1432 -0.021857027276861937 -0.1058953911508832 0.015643572236965705
3284 -0.037482274626240444 -0.02380051429917208 -0.12439217868615228
578 0.06150219927028222 -0.07716736971195763 0.04880776062454731
2087 0.0310506627584054 0.042893359620984416 0.1378284527771137
1428 -0.13454426109226092 0.07852879533677758 -0.08178622917864044
2011 0.0013764915396556367 0.12870995923591322 0.13649556374266733
511 0.09123985644213128 -0.06689363765117007 0.08062304319558598
437 0.09440666177772361 -0.10559351194911351 -0.16075212640534534
2802 -0.06896153407481545 0.044906220347730924 0.04503899042657093
1114 -0.12376242917539268 0.10771645580796897 -0.05158102907715678
1439 0.04871433365605608 -0.10688059546968655 -0.04127490012678039
2188 0.024064873519625465 0.08546128215068961 -0.08642031523445692
470 -0.010658329818300099 -0.0005071461075444573 0.12437659216240719
1270 0.08770749503007089 0.09263649738222915 -0.009630517121144232
1527 -0.05787841220730146 0.025515511702161507 -0.1449108495984302
509 -0.003251926667462518 -0.09301530642214145 -0.09615121929683192
984 0.06151096286815494 -0.10354632244092332 0.04112553926929222
750 -0.0884936706311846 -0.004582961923133122 -0.0851920871275688
908 0.08913395492450998 -0.017844126037487428 -0.013219439408624255
3258 -0.20228607561187203 0.10497215774056703 0.07502942385912195
2367 0.16525439007187176 0.019039190477508048 -0.13865227035083103
1770 0.10320571406781007 -0.08715090235687711 -0.058095956980966604
1716 -0.058111101635725984 -0.041041252960560104 0.09477563397836927
1799 0.01935519812098572 -0.07263629535924401 0.029341417424469555
3871 0.03486493603122816 0.022787045175631626 -0.0062756405085608435
5284 -0.17312202029793375 0.0015705768986390874 -0.051134823581419964
843 0.0068414402937036 -0.02765548013973409 -0.12462078538657284
3546 0.04360275429497152 0.04894622486333024 0.0006218813898873059
6042 -0.0369641645179294 -0.06316836903499388 0.11289897691187206
5213 0.06545639602646 -0.03940414437458704 0.005628769651618279
775 -0.01716866515366984 0.14502372800397134 -0.018084812412440792
5962 0.004032850377626636 -0.04181440480328639 0.21769999579497373
5309 0.028313763405623988 0.09039868432575393 0.0012888882364781428
6108 0.11073796415452931 0.018243667269745977 -0.16608081899599117
1730 0.03255303248839919 0.2740990450077654 -0.12110207269846959
1337 0.016531827636722375 -0.030437448103447312 -0.03993389630997125
2589 0.0637903800309136 0.0895340129818242 -0.0991128400481761
742 0.23292066203877507 0.04193453280438997 0.0954571799523588
904 0.09079305320119807 0.15363546079168142 -0.08671511994618838
2404 0.027999010213668123 0.051548638000708934 0.11765712329931546
1667 0.06362537315469624 0.008418409869566656 -0.03692955394704164
1631 -0.1530415620439872 0.19046974558781407 -0.017269069829771493
1633 -0.08388996111083598 0.17071941950172234 -0.03739282023143345
1723 -0.010813897424088417 0.029768810295967396 -0.06995980519407297
1679 0.015005149288307918 -0.04894472453184893 0.16322453164103878
5211 -0.06347836478612756 -0.08478718396895452 -0.09188977059001008
1746 0.008090807285772838 -0.07159628748112623 -0.16002017697696044
1701 0.18749373802760014 -0.13240076800787565 -0.024568489035212977
2224 -0.008233397112469246 0.019972948540528578 -0.20062760550164171
5013 -0.02029810818700656 -0.021013140064536983 -0.08801486156999723
3203 0.042426543360476576 0.033765506560140324 0.013165431563481819
1585 0.0514180202544425 -0.10590142192549055 0.023231326275269325
5186 -0.07137550371974406 0.21717804984667266 -0.057884210726338106
5304 -0.07264850680764497 0.009054916420618031 -0.021968430253099296
6224 -0.08846234122285156 -0.0482166802003941 -0.05277944844192301
5771 0.0115000287396077 -0.016270276858886865 0.09470529087284449
6242 0.1528396568755814 -0.07181688651141029 0.026635126473576895
2479 0.05321930130741186 0.12127922107731658 -0.02153582284314173
2398 0.1506868845877222 0.034084085056650504 0.13207853393352592
932 0.14225139963649625 0.11161259463924057 0.1103745278034574
3144 -0.0021743867917462852 -0.002121820994984684 0.05479135194071404
2918 0.01090862322502631 -0.08911941338507658 -0.17083498925617796
1471 -0.06727954010653296 0.004554778055121687 0.03276157407198261
1726 0.029893215140252963 0.0926070216033841 -0.004070759725940391
828 0.036678734383960104 0.1264589627186052 -0.0005413569413328847
1661 0.10411342962363607 -0.0016640654937659849 0.03933768621679513
1781 -0.22036453365810704 0.08398345717923934 0.046395651392955796
1727 -0.08558839546039854 0.12246505055380819 0.08191766704149779
1509 0.051303288549432335 -0.10577550331348892 0.08480201787988277
1016 0.018081746234312704 -0.08188219658856721 -0.012232808475028929
1078 -0.0786764916394048 0.024992499057968777 0.02819913938875058
3669 -0.07760012291898234 0.09021287565729055 -0.029951500282556286
5106 0.045519831005742695 0.09242128004080184 0.0562774020835238
2227 -0.07928893911554838 -0.037598219065293065 0.04519863210013004
5592 -0.03423865136276515 0.16857801830377042 -0.0682147302496311
5927 0.056120498960400944 -0.03476783827894887 -0.002969497162086533
4756 -0.0387397948340158 0.030754507688759807 -0.09786214773354762
5631 0.0809319838498504 0.0300165885807435 0.05621753265202374
5772 -0.016361063339545456 -0.004284951761155958 0.07342554574860521
5130 -0.03555317090645933 0.1148609517911243 0.07237895180438192
1827 0.03580065409061583 0.1308771075619927 -0.13939888013343169
1192 0.09006769280573743 -0.022088515719316408 -0.08890125625052088
1348 0.24120827594402153 0.01801750369876159 -0.09715554766630247
798 -0.15657283899671892 0.05891422931235369 -0.023558802139779456
1756 0.086683702995665 0.0669121193630869 -0.06047842231896119
1622 -0.08883092912444698 0.05138984147225873 0.09348046892435151
1514 0.03385097959387495 0.11546486049485508 0.007137119402194983
942 -0.00874621634670869 -0.02452349760347602 0.07494644313334124
2989 -0.09202994555637617 0.007052937608981935 0.12963565998985888
3025 -0.07923975628411623 -0.058065191768919854 -0.10494582921345846
1789 -0.02465632312090255 -0.1458061054718094 -0.049607678011973314
1777 0.037483794951693385 0.12263806094812986 0.09908642645764515
4278 -0.08344736512662522 -0.05301568706889499 0.03472164267586445
947 0.025188088807657112 -0.1753521296146398 -0.08542008983602725
3029 -0.026991352062131404 -0.11760816647646413 -0.026131246915520163
4158 -0.10014845979656602 -0.10182998082158072 -0.023372136253069713
1692 0.17270303887914443 0.024492726472421893 0.05989109138202868
1559 0.029146916791264233 0.29975675417098185 -0.03184091534417228
3003 0.03562058210774536 0.029432181396228062 0.02422714000380146
4869 0.02205604937158731 0.12924182369793863 -0.16002207960436945
5455 -0.07579882685423864 0.16431670569412932 0.20323779930737348
1733 0.10653705940763018 0.017757378511269954 -0.040908673269586526
5499 -0.15825607724000454 -0.1437149809263166 -0.22736829888917442
6185 0.07406396277534304 0.10209547287082366 0.12439986560940898
2637 -0.1590707122649956 0.01838349972470371 -0.07349426626388228
2943 0.0445767570778661 -0.032144197579402255 -0.1016819485629486
1227 0.09036608703432779 0.05176989224904821 -0.021364132828606917
1531 -0.17640962997429688 -0.08947413952475188 -0.022739932054593365
3156 0.011229742940510084 -0.023398321264408578 -0.05826230794664955
1058 -0.060926924414190245 -0.0003527366169895855 0.06089019340724269
2325 0.06284390342020313 0.0012486143501412653 0.0017868184822726497
1786 -0.04744852743110787 0.04311566692969562 -0.02406727998058096
743 0.01602276304714737 -0.2204196775773298 0.01155846272548407
791 0.015252754642833773 -0.1641948279436733 0.0005556765146210781
1090 -0.025913532520118635 0.10849527713449189 -0.03678715199199377
1477 0.13563745613029488 -0.06283984447493318 0.12201104245981147
906 -0.08584901710347094 -0.04559595496679509 0.10483405947591333
773 0.13336769774636784 0.03166511531099437 -0.0015544806864746814
5075 -0.08895248708965181 0.0738531092354388 0.07207568443724072
2944 -0.09257518216288552 -0.008378258921192594 -0.03853412602084275
825 -0.1070848695505097 -0.06276924954385413 0.05930191665428462
5107 -0.11409052082637085 -0.06528291966350298 0.2061371819585262
2320 0.04963951099262398 0.07889884194436059 -0.03565078545957589
5024 0.09379092944466659 0.04375207785808932 -0.1008496212918592
3350 -0.03051120859051093 0.020703492915295246 -0.0647603081616108
5445 0.0226649308530247 0.05928116774791215 0.09600415089490144
5247 -0.11494650704418591 -0.11961322101852116 0.04106871456292776
5958 0.020595134700652377 -0.16134555438075698 -0.024524214343775837
2019 -0.20499844533136383 -0.05730019412294237 0.03236398182625096
1674 0.011889690641881454 -0.04750359702765511 0.027361095352538764
1191 -0.03782998249723404 -0.00963572280279308 0.08003295175538061
522 0.15820446648642947 0.0065646056926701515 0.035148896121360323
1640 0.08673996539150389 -0.057929381254404076 -0.036967786572592934
1530 0.00914235156844927 -0.044718465424917614 0.023468649280543288
1616 -0.08922859222451987 -0.011577458989053897 -0.123051349751935
794 -0.09042269052163453 0.030397994369264537 -0.010869637530618783
1549 0.1381174443589512 0.0013974080472135275 -0.02365271488790463
1022 -0.03733864603763182 -0.13903126714867445 -6.437766456039978e-05
1534 0.1377223600613013 -0.22866765612439574 0.12158936346754731
786 0.03263386172597556 0.048635162861550015 0.11157518768384046
1694 -0.06981001934914781 -0.03268077503882321 -0.07682528057537337
1043 -0.05670149152946761 -0.047023394920462855 -0.06712535810225051
789 0.03511475890655688 0.14250359880044072 0.023750092306866755
1720 -0.0037102219865374937 -0.07126768166116866 -0.033475023017830084
5951 0.11638201968798167 0.028685907444681333 -0.1449451770948656
5726 0.15116110429715757 -0.009473914858569486 -0.04513585004252982
1501 -0.056817596769942275 -0.01963550360264786 0.0034216006476668857
5645 0.06436194988109258 -0.06590265151663187 -0.16097640578528308
5669 0.11016384303029578 -0.021877078883629712 0.21927341406604384
3936 -0.0031886228074471425 -0.05979539896029119 -0.08239599736921115
456 -0.0006829590167148764 0.10582504589977769 -0.15089913454051174
1525 -0.013771107534356154 -0.04620529816702995 0.03965335697816954
1186 0.1235881025650305 -0.02148486720092366 0.015071905464326043
1948 0.047736956978740155 -0.02397264638530469 -0.05113325614593215
1214 0.14129255783726863 -0.16810532987713536 0.1299073284936871
1643 0.08848408613848903 0.18409226094074 -0.11717920799059427
797 -0.16906178643304592 0.047915435399894395 0.1728266873075787
1140 0.058565900436966974 0.0812935605451377 0.09827842423097342
1765 -0.03836399990217597 -0.033495352194521225 0.16334295786749634
1003 -0.02544305164787181 0.13240120207755773 -0.003895550223746498
805 -0.06642707380157284 -0.014784764522181266 0.028534469940394446
5016 0.012248047751423297 -0.07532504801144489 -0.010544407649378496
1675 -0.04147084206647496 0.03238616237621272 0.15026755653485482
4811 0.021299548874942002 -0.037315615417676695 -0.05116808054562334
5987 0.02211178189726467 0.0354607910761977 -0.036395913992743854
3950 -0.044716140542522154 0.0014286117458015349 -0.09324059900767495
981 0.09326400606432715 0.17756010073490758 -0.06083088368642992
6043 0.11381927724444979 -0.1051977153550467 -0.09456214739109402
939 0.09241065603324511 -0.07056514001520764 -0.032988368977083765
5306 -0.05338894135281548 0.025281264771717764 -0.05821511736406215
6175 0.054030618082686915 -0.12354985704222031 0.060220940747953894
6157 0.04441842354814469 -0.22816715937195028 -0.08759451139864054
1261 -0.09720382292971899 0.06201766813105529 0.09079855634558759
1553 0.18137750044752868 -0.19327736041183247 -0.003104420544726136
1074 -0.02548836876982439 -0.09200955020777457 0.08089927337129514
1470 0.006637763161209502 0.073560425383014 -0.0071891383670870945
865 0.018438034307233727 0.00828211753909753 0.050775372714101465
783 0.06960316918085815 0.00037672089364980746 -0.19376280305675425
5078 -0.02502733233501595 -0.19378355928004917 -0.0346312326766484
829 0.10541736141452793 -0.0746049213171453 0.005953173207394365
3058 -0.186872050830738 0.09981614350395153 -0.0403302373465514
1056 -0.05675926756731491 0.05332825400960943 0.08081798490733137
970 0.18269127492444753 0.0014885207113828972 0.12617546919006006
5314 0.13820360407639068 0.0842592750814925 -0.02594778727992462
5178 0.03277912458231911 0.027973507241116788 -0.13993636365027282
5621 -0.06282815433676281 -0.004697475884457127 -0.014367238915161123
5424 -0.17140830755774375 -0.12374335734030346 0.17788168446717437
5986 -0.0178477844960971 -0.0826001272482112 -0.15103988358446235
4588 0.11425673766141543 0.010101242919800125 -0.08816422317861429
5637 -0.11406181418843105 -0.02769174721138097 -0.0444008054687293
5712 0.1353398551985292 -0.032546991654840526 0.12616746728236905
3401 -0.019643803767379536 -0.1592299606871927 -0.06207509346378079
1886 0.018853452074322027 -0.10656146051165166 -0.0048626005879100626
1594 -0.036068481535905736 0.16340019620096094 -0.03953292743674281
1201 -0.06322705766959934 -0.052049249328564216 -0.17341351492461224
1520 -0.13353101247137128 0.10564599702686374 0.09447792157417623
1684 0.08240230158954458 0.27631410321274447 -0.02190182244890163
927 0.11768511239141986 -0.004340792107211031 -0.15038513897960815
762 -0.1112399374279427 0.17550279962064735 0.07007657687901253
1536 0.15199320697889185 -0.13406538202627588 -0.02989905661612176
1683 -0.12451562848080182 0.08426458193394623 0.06340829805048523
905 -0.13100801809245546 0.09964660957730169 -0.006670982484920023
913 0.0567522141204562 -0.030231124780507056 -0.015774806488987814
863 0.13683928758984426 0.07234039668029484 0.16659216626646833
1635 0.08682049223035468 -0.14358236572037297 0.12785159725207126
5169 0.009192267619168398 0.04492190338020176 0.013761419962046684
2344 -0.003960886759887466 0.010812311896884908 -0.09970196757560255
5100 0.24871846960754052 0.0029583674806622808 -0.13614693284111068
4044 0.14454964094227377 0.06156119601851314 0.1184504892408723
5622 -0.039478334298793535 -0.03968267157222507 -0.067607266950233
1597 0.06705998727847154 -0.07777980928347533 -0.04419526869614826
6105 0.21071354412257465 0.18308643990304754 0.014914685409760757
3766 -0.037112427330708526 -0.04525234336480002 0.11337921276687062
3654 -0.023383346023512833 -0.045255683369962704 0.059947137176066784
4292 0.13891190695124145 -0.017796770620234808 0.22987264120990072
5059 -0.006495916708695015 0.020038183637121457 0.08861385867318326
1338 -0.11462152324866641 -0.13366005361041478 -0.06819450073189387
1779 0.10490439574512211 -0.009230528443616775 -0.019104296963568378
1405 -0.04470654513963177 -0.06827504283383462 -0.08610161347319625
1753 0.0698593609525128 0.12696606044371875 0.02174558395332537
482 0.006692869906533349 -0.014735377895927102 0.0014043084696596948
907 0.0551373418703195 0.019047237929396988 -0.01205527603336251
795 -0.022677216023533505 0.011946881098599291 -0.004035126750880892
432 -0.1534053435100066 -0.03839146114784052 0.04978443357026837
1718 0.18048816056814282 -0.11180173007482855 -0.06080350805016197
873 -0.020992260621373757 0.020222537234677058 -0.0861841576827787
1739 -0.09907774474291228 0.05551283743995566 -0.013343006108878307
1070 -0.25159568033676927 0.023905172415780145 -0.001827405942667601
5136 -0.12844754687758286 0.07276136966034671 0.018385071350692457
835 -0.08685888122806588 -0.03784073169020542 0.11806187344410352
1764 -0.13540257195840405 0.09290053407152395 0.06336973159798757
888 0.030953890152677774 -0.0716676748553234 0.09446475072446638
1004 -0.1657893208024298 0.04729241641378079 0.011555918363621846
1503 -0.028213167286301882 -0.1062421810506418 0.15303429469654378
1791 -0.012939111067847876 -0.06903437128441887 -0.057905165810191235
5605 -0.16127911980223913 0.07391337593638003 0.03802425450647143
1524 -0.05603504675885967 -0.06236920559271736 0.07954487182451547
3941 -0.14082264485723092 0.07150693158451282 0.04239834296337419
926 0.013754156232080508 0.11122881134909467 -0.042994442419907485
5400 0.012814678228237154 -0.006650678478180898 0.06127356518733641
1033 -0.05737925989106115 -0.019592719598694446 -0.1556021020473298
402 0.01431081251123089 -0.2581161418544531 -0.08153433207458151
490 0.026040669931452393 0.10310361866192577 -0.06634323431492581
1604 0.016714188275471144 0.1529242886881996 -0.014454607887516242
1154 -0.08123558843870185 -0.009217949364498764 -0.03488706099384885
812 -0.0534640615840396 -0.03343951051658836 -0.007431856250705901
1327 -0.07081083897373731 -0.03665478789662974 -0.01963329607874065
1487 0.03150026657151922 0.006192111782817207 -0.0009653573410078799
1728 0.01918859028265505 0.056110918595556135 -0.09811567167851284
1685 0.07470465265197147 0.05210793838970665 -0.021511878118296655
1778 -0.12712572077618106 0.01652217975982881 -0.013330458721998232
1755 -0.0339875743140599 0.07047067660479232 -0.017159318523860913
4387 -0.10201483940472696 -0.1436189850185764 -0.008070790246904016
800 0.0029074500246625773 -0.08425608115378086 0.0667416730369757
963 0.10049249332771126 0.13737695609391995 0.02010822651312358
3849 -0.13750228851239094 -0.0735883521741782 -0.10892655069055812
1695 0.07167751124658367 0.0010051625005713348 0.021707936988667468
4422 0.028404888745217242 -0.03819306609375549 0.06397838448789711
6200 -0.14812909092151932 0.005866517094072616 -0.030879974983049563
6039 0.1514770486035247 -0.05688076805392187 0.016761067809652926
4446 0.026559336122756502 -0.0010935253691460103 -0.04277240740993366
1586 0.045721290860614855 0.05269652977278359 0.04051027748429298
6000 -0.14969473326989235 0.11610854057624975 -0.005401989378131196
5388 0.034704837093192074 -0.12678346064620458 0.07374300863308511
691 0.042863263898451076 -0.10275142781233537 0.0017857427426065942
474 0.05589699772306952 -0.0278473083586027 0.0646598542338167
921 -0.17660659426740308 0.2644427071264662 0.05280286341709798
1100 0.10687341381779564 0.002573562281850344 0.02169450454675096
1577 0.024354570800716714 -0.0004699678431056651 -0.028133597254059915
1580 -0.05958619745891453 0.09497856763094695 -0.07828707991797333
4343 0.07967593631045461 0.11233112047351664 0.1134639541493635
4932 0.017505332932380307 -0.011534144014443817 0.10106350341140607
5103 -0.05303310080212697 -0.008568727788236745 0.060813995445285485
1813 0.0002962145378740035 -0.1046110719834405 0.013145785375697331
753 0.0028859598818672394 -0.013460466562588133 0.16586207482696555
1557 -0.015164034003649293 0.13638177800526124 0.054740247209700166
1796 0.0637807254173058 0.07339341016974568 0.0766240689503364
803 -0.0034086794342946154 -0.07151146156254008 0.09130939124226278
5307 -0.06575831263338155 0.08845536379243069 -0.1181212278918564
6164 -0.07176818974923004 0.11737814956714454 -0.0492130530212246
6156 -0.049117832597576336 0.06384566172918545 0.02472800677487833
6012 0.1296474100745088 -0.043898026654664565 -0.028048273480078222
6249 -0.14725281053139896 -0.012579344310638542 -0.18298085565964445
6193 0.003072501910665322 -0.049600913248932434 -0.07006999084567714
6014 -0.012513266958876184 0.05461001519263415 -0.09951645863072756
799 -0.10029673318659792 -0.15407822176171737 0.1490159993118757
959 -0.057265601038910235 0.046723939198313975 -0.07225907986548658
1556 -0.09775510933367182 0.0494878960453767 -0.016612245813249903
1219 0.01768856143608372 -0.0038013688226510058 -0.06123458918825566
823 0.08336636684127534 -0.016535395807819795 0.017164717276567383
1714 -0.06503507789933365 -0.012089563546608704 0.037396855878909785
1360 -0.07122421981104786 0.05173602218712842 -0.036012566653229355
1535 -0.021645924044184625 -0.07540981836783799 -0.034767882552874184
111 0.10492252248015888 -0.1920886603422837 0.060339220940244805
1484 -0.015770838717591815 0.05127476221773168 0.1736985807831282
953 0.16460729712837976 -0.05481689121659934 -0.04634627528777823
1574 -0.05286733714580946 0.06244311347753248 -0.014017964095240837
796 -0.026988404791276975 0.0556382343762165 0.024346271676689037
5104 -0.13262050168839734 0.038045283426748 0.05996586393347028
1528 -0.04990544635277839 0.02293142212793043 -0.10916110811225668
999 0.12059314561845953 0.0036314326678627746 0.0009013214679879367
5050 -0.08385907297386318 0.09718723530196266 0.17016060631126248
1024 0.1056763138758634 0.0722554769130184 0.05006887097312508
1093 0.049194952484983026 0.068862342559185 -0.07892116340494904
941 0.0490419904845315 0.02679832299427432 0.13722834097389797
977 -0.03951869451373604 0.17166390966061296 0.03462208233514407
5097 -0.059589837436501585 0.03302502773938705 -0.08573554303354083
6142 0.1706684996777592 -0.03918035903526418 -0.07301919883198921
5177 0.13710571122582846 -0.05155339845653051 -0.023165878150028622
1378 0.10433088209856217 0.135035492133827 0.01202429225816111
1297 0.02819659379656889 -0.04109449598428139 -0.08771337951034698
1198 -0.11901154498821205 0.032876529584651405 -0.033925066436293026
875 0.08578216282249819 0.08595431781260161 0.06205779248526733
1605 0.046822158532735365 0.07994968345784521 0.037762564862136645
1711 -0.05195882247400323 0.05141646198203015 0.010428159780308354
1032 -0.04131103273813916 0.0050189704280643194 0.06753088790130994
1575 0.11438893303508528 0.03353692415787456 0.02028852339310744
1502 -0.07553678610882383 0.20466616967454107 0.16848539170121646
1741 0.08905198299547062 -0.06691444215181805 0.08090409435506747
1628 0.06250715601056303 0.008228976100394976 -0.007652742541140281
5375 -0.04310763476601796 -0.009461920756728349 -0.026752693258674812
756 -0.02640204346082394 -0.04791222182470532 0.14095936602137074
1814 0.04714652951582002 0.1259807904118576 0.07603491820899361
6198 -0.10404694091283731 0.06073386486371998 -0.07873862191700604
3389 -0.04595032094731757 -0.10308987098589398 -0.025344868015246495
6239 0.05084627162726939 0.06933517352873134 0.191886603502503
5985 0.05490140599498412 0.06086859528286752 0.04636588728688912
5619 0.05739146085153747 -0.002706666559131949 0.1382984820564251
3734 0.09013638870513013 0.11030749520120756 0.05896669648753813
1236 -0.04992090663925076 0.01612637791623857 -0.14755667959620986
594 -0.06395722217769262 0.0002877979456141237 0.05543451744330044
726 -0.19449501663010219 0.09071197183600402 -0.03757333878807793
1158 -0.02048185801231494 0.037536728470491054 0.0763376043013235
1452 -0.11063006211096939 -0.10965676874572347 0.07665946987362532
1766 -0.11070438663608224 -0.06037149696125537 -0.05226948921881572
854 -0.07640329775253671 -0.07010781850200748 0.10792634995592669
1511 0.12001363391800372 -0.08660415310863731 -0.10854133956674046
958 -0.1380948420604321 0.02055111407523476 0.12015493715097159
886 -0.13327644910442119 0.09614846444080047 0.01336605625536313
1815 0.06918788331030844 -0.04396238563694733 -0.007655115617893768
3521 -0.03355982687618771 -0.0742901812372762 -0.04344545385696667
1067 0.0010253237700111953 0.10746228996322697 0.0884467429346079
1010 0.13456515989083107 -0.02453279408978723 -0.01975375211213419
1545 -0.10694339713397671 -0.013463764481588706 0.14360613805601133
974 0.1466157839905011 -0.23865640929042578 0.047495803584791635
5108 -0.15838866683951877 0.000718212094680452 -0.05209469283910509
986 -0.03181463595141795 0.009397716612646073 -0.02417229356002294
5150 0.010890211371271259 0.013937943743719036 -0.16569917587820251
1620 -0.0876089015634397 -0.0487819802899259 -0.0466571548357612
4104 -0.026011831625973866 0.023619679081230964 -0.06885156748952488
4602 -0.0854605873253463 0.19183658353506694 -0.0019860728811075708
1221 0.07790798420827083 0.044224302276473844 0.05086593391424364
452 -0.13244664264682882 0.03649797845698893 -0.19273783785108517
1237 0.19364872381076084 0.07957637421131039 0.01638970506880049
1467 -0.12688987931415469 -0.03855370253922824 -0.013014204782717958
965 -0.13048954180429945 0.09812262837130901 0.020740175533533085
1626 0.10737995028988792 0.06544364250481308 -0.08126643280970049
1687 -0.01614813777401129 0.07318830374964747 0.007735729199407987
774 -0.06535407559223205 -0.08982599514271719 0.02918520851489593
2397 0.055030066444932906 0.12915223382611576 0.05460017315624706
763 0.005819790794042623 -0.08497329045340499 -0.12262665733494255
1080 0.028043410970326303 0.13716545897474822 -0.023550689004133242
1588 -0.014382246998733975 0.013960844690726 -0.13523500451733572
846 -0.0802648246047617 -0.1061934151259725 -0.15327833545617586
841 -0.10012148217513621 0.06748611610927843 0.17343489267809165
1020 0.16709238341233001 -0.09374647689670933 0.027429531156919113
1089 0.05302281283635675 -0.07018689591144288 0.09151937087420503
4413 0.15286444024011545 -0.09182818887841994 -0.1881474152042366
5083 0.026244679484364028 0.06267518302190862 -0.05235841710411146
768 0.145779795389516 0.007270672020203872 0.09914863135413246
5149 0.013411063976621555 -0.16978598429903144 -0.035632846080893905
5360 0.12232756797568045 0.13010711384326412 0.06765714292316526
3494 -0.015595666357542254 -0.17310309284794648 -0.04738945964594559
1646 0.16779535144642654 0.030664069750792302 -0.17068974374636006
5532 -0.08729725961780259 -0.024978566809061596 0.06377674298321523
5431 -0.03912571048270546 0.00034390750487058204 0.15935107931965517
1248 0.07543212541578993 0.08710458079781314 -0.057013057818256385
1652 0.07975299521273808 0.0021893815905811155 0.04097760513970302
1715 0.001132749239479279 0.17846433938979803 0.018999752817425514
1518 -0.18230599114584065 0.07444297010657022 -0.15455388915563156
2605 -0.1213492036644508 -0.14676369238065842 0.08542443895084628
1803 0.07686899395968455 0.13671440300987975 0.023944225075529665
1581 -0.06639155988711465 -0.132473922119168 0.011654991110382443
993 -0.05527427931740973 0.12137934777718902 0.019989599851817665
1748 -0.1083209551081465 -0.020550579244664798 -0.20486740910317136
754 -0.0347099496669961 0.029076207855810474 -0.09245893702373947
813 0.12548112320726146 -0.026641113183113223 0.019487278868177058
4935 -0.06262981363551046 0.07457413168656818 -0.10502638722603627
3396 0.02503811095623132 -0.17084299115114504 0.03189642659511724
955 -0.05965773155973576 -0.10711067200044203 -0.05865781236388027
2468 -0.0781821761362269 -0.14725297130561205 -0.09146607752718311
3534 -0.008145355541440347 -0.11830350567278912 -0.16838826079434027
1670 0.021465702846978484 0.1756658876775527 -0.04185462231074281
6102 -0.19562801650815237 -0.1138066351453211 0.16176844552423006
5812 -0.09232044458668495 -0.05021403895225437 -0.17362813079588485
6137 -0.017003009892604004 -0.06998165999937307 -0.021460108821993992
5295 0.05845936799170587 -0.02856707408394991 -0.023618650995414305
1296 -0.06411379793541404 -0.058758176164679043 -0.15984451617926299
1325 -0.03854804644097266 -0.015635198722051366 -0.01950388518056615
1475 0.02086423264935758 0.04394087663961483 0.09175730730634055
127 -0.1506889516710935 -0.06853855282376305 0.07704045589869303
124 -0.002038447425969602 0.1734603150859413 0.04932710822574264
1782 0.006396678934057238 -0.1263373887385787 -0.018434228196161227
1096 -0.10341533527007525 0.07421540716781952 0.10535338871813246
1696 0.08480306722678763 -0.16699231478911578 -0.07823199191368814
1444 -0.07582529219848448 -0.001538258323569009 -0.028913022993769272
1423 0.0004306154229722463 -0.014785103347541472 -0.023257668021576496
1561 -0.07439067214643627 0.1310810021433546 -0.06392974458833475
1638 0.11578212198332315 -0.013133012368051873 0.08289308624426894
903 -0.09053420668756573 -0.08802746265810985 0.021625778947164727
820 0.038646615429422354 -0.07489389234984188 0.0036883504964681305
1485 -0.07760513728551396 0.08871514602842455 -0.0938821869858732
5154 0.09927301129107985 -0.020922406097517957 -0.12151115107701348
1665 -0.13780326054741124 -0.05279599955302923 0.2515826366767653
944 0.10118410710532919 0.06299369806223148 -0.1283427385301365
1600 0.004542064538877275 0.16235889792788888 -0.05441580346959979
3867 0.05621670241276248 0.03400300540123651 0.2110756465108376
5686 0.07040254308035615 -0.1790330497162299 -0.16762589070945627
5582 -0.11744644482897257 -0.037058278210122954 -0.0472135138080286
6205 0.08028410806547477 -0.08453227842597809 0.03156747700981932
2327 -0.15982098464908123 -0.07514884608682017 0.06148847640734564
6186 -0.081548901554054 0.11410460339761984 -0.0710181996007639
129 0.06055958150635773 -0.07090321017455341 0.07073541201601057
86 -0.007012032651837984 -0.08964361030130819 -0.14334155720334196
126 -0.004847189844308839 0.029652836301543976 -0.06217061065357325
128 0.017482440906409 -0.17780831061487296 -0.07724285987664663
130 0.04786135862865661 -0.027528254529969383 0.0646762295300323
131 -0.03265433955091469 0.060377827981045996 -0.017770842019567714
132 -0.16592217177581842 0.06647999855844468 -0.07225042500202061
1222 -0.1054717150869298 0.09068900109300566 -0.013165484380253556
133 0.036839126279862036 -0.12901887852534996 0.11330069375321163
492 -0.02746438864217962 -0.036565544202545784 -0.0580746441283104
1257 0.07227262615612068 0.145513403908835 -0.006350055307840089
2724 -0.004190396501654557 0.03152038073205295 0.036958279802215194
1491 0.023734391376747425 0.07671770101397618 -0.11491635625968419
1800 -0.013105903853310029 0.0797273931738875 -0.06279828769664152
1184 -0.04200652963021722 -0.03156085577662793 -0.050096357272160164
170 -0.03435849491683286 0.10378391437832125 0.06552299094015687
972 0.05740716851513897 -0.05875518235098354 -0.02769774701801386
1496 0.09967783991134006 -0.05406045417481486 0.07757555603097974
1611 0.1416401082618419 0.06911016222445523 0.019821948317661386
940 0.14218238706509095 -0.03623400574064867 -0.11320430299637634
1565 0.12143110391190483 0.011255132821555283 0.015353123030793947
1498 0.010480833930530266 0.014532353171207935 -0.016021119168973443
5082 -0.12104486724097478 -0.09898296318873327 -0.004529620389330202
748 -0.0160281599004899 -0.0663659156677579 -0.04308768654622439
6240 -0.025435963677623817 0.028579543285629127 -0.007178735297449693
5635 0.042450211398896924 0.088698505114617 -0.07005132060078073
3864 0.05619608972377487 0.1266417058847018 0.022421440942292307
850 -0.07669797169706476 -0.05330968547741327 0.06432184270898983
5269 -0.1367945275144915 0.08237212240215372 -0.10021045953434887
5999 0.036622737616965155 0.013898165337790088 -0.07116237052713512
4781 -0.06596979713840569 0.10271798523962801 0.0645794103684776
6192 0.010623144337186004 -0.09975802123764986 -0.08552706809617337
85 -0.03323271377339611 -0.0658038605614821 -0.039351807465165034
88 -0.004214194184185291 0.10475699169485217 -0.010639578115895908
90 -0.2705985158530068 0.10078890297492278 -0.04811671803105892
89 -0.03437640980636811 0.05010549746616112 -0.13594257795654516
87 0.032486257253916406 -0.038268398850422304 0.04682701655488381
1295 0.05771507732410331 -0.012753904739059924 -0.07619085001578195
138 0.05013201243159548 0.022362529141606136 -0.08522733474429513
478 0.08290966003374643 0.049636715745536464 0.011552799351751925
134 -0.03990086552332341 -0.02363398075633648 0.0917730214705913
136 0.1237726684364048 0.06025923410746726 0.015430282594273637
731 0.09001077317400696 0.09656718365192589 0.12290170377296922
137 -0.09897954117659918 -0.055116128062104364 -0.026117932271045852
1244 0.049611793126277455 0.03540856249851584 -0.14774423749056662
135 -0.10185922329078229 -0.04529469753819328 0.06999269474974615
91 0.057047150649782954 -0.11082045810764013 -0.21071082592313015
160 -0.06574349947325552 -0.03700257553017657 -0.08093974026918381
164 -0.05088128828162348 -0.031068861306075383 0.03387954089124769
1570 -0.039336196398212044 0.09292986536316916 0.05986174104118533
1300 -0.13201442591423374 -0.05658694046520327 -0.0215174715531953
918 -0.02720734781059967 -0.053919872980812154 -0.03981480472732636
163 0.05323761517022371 -0.07681761920440011 0.0991490535883039
1659 -0.2084657454720447 0.0621287399133231 0.10452620096265171
1584 0.009423152828861137 -0.05737937888382254 0.026637446998349086
5239 -0.05353550074399621 0.023324197682223158 -0.1557340056058742
1747 -0.09775733463438324 -0.021636449361374648 -0.17175356110618498
1512 -0.10024049997670657 -0.11446924814484381 -0.2454953704230592
5069 -0.17147925763760066 0.056770208764680336 0.18320979461916936
864 -0.017823519520935478 -0.05072261607596184 0.03865715909415357
5282 -0.07090600532981921 -0.013175912787018292 -0.1078454531874812
5248 -0.017323958271743184 0.20727070388380428 0.03225856432800429
4242 0.08030279967088783 -0.13517226093845391 0.011057743975975046
6020 0.0824725215993368 0.14596483260001095 0.11406681494495773
861 0.11516907459929579 0.02300754899231952 0.03616065432504435
6047 -0.02139613420886937 0.013122461154744108 0.062079840925449076
6139 -0.048443101656433576 0.026429331567286926 -0.052785541467630696
4631 0.0363917450980279 0.025656470490471758 -0.00964002468881114
1913 0.001512305430312947 -0.010359440916494312 -0.05104554480479475
2829 0.009721118293556428 -0.010979783178260677 -0.03095259380815523
5212 -0.0348919154432797 0.018661744822507702 -0.1518882911745206
1569 -0.04194507589472719 -0.15055948447569395 0.0358761001927914
1084 0.14048814551984673 -0.03476987028391221 0.11844886840144728
1533 -0.04186456096514232 -0.053225295999214266 -0.01958277386701162
5396 0.20104076456946743 0.0948076841257325 0.06913999399438718
1617 -0.00768616757060336 -0.1622938398705785 -0.054291944536301595
1735 -0.019039299742634044 -0.08745705469036133 -0.11580209736512832
2284 -0.07508222339594647 -0.1374528601728657 -0.04884194411793107
4519 0.06419178096969748 -0.04668452594175978 0.06555692742852898
878 0.09097555550904933 -0.06100388957426273 -0.13170787445711057
998 0.05137361530313815 -0.004101931785478579 -0.019281818604082464
5096 -0.07302528170559247 0.058459786908353295 -0.06641133737394313
1483 0.012650204152889819 0.04479624849254432 -0.06262750583235119
3398 -0.03462963172029264 -0.15560810812590234 -0.1890773696194278
5193 -0.08382562343905971 0.014331992852985823 0.05198663794331194
5401 -0.010376833430530537 -0.04828501539559373 0.15087423638509176
5543 0.02493460705228398 -0.07402976348571405 0.021542880094602507
5246 -0.061638633314703546 0.1931521699217322 0.0322591457478505
5814 0.032700741644765954 -0.02695596984283183 -0.026763556258719807
1128 -0.17168168160536634 0.03441148186669496 0.005533484666517222
3070 0.0962128237785549 0.05300402336483005 0.022950397512869238
1105 0.08129297176558732 0.03524107418688081 -0.1812185563605012
948 -0.10803252149653636 -0.19090201252013772 -0.21119565377128344
1218 0.05723642600987491 0.03450168807084013 0.005172377343859336
1372 0.17903144846397862 0.1495711840342965 0.21342800154734345
925 -0.02927051024755867 0.08327969660496189 -0.10260492665383908
2334 -0.07320106095794898 -0.041527808979432514 0.030726667570974975
1771 0.14231820996489977 -0.06016483570585531 0.023942155547843652
1642 0.008337070688057752 0.21060523619968888 0.08347472832879306
895 0.10912922396210317 -0.0022499885762179333 -0.11432816747047861
746 0.08106017373582403 -0.18886273598269615 -0.10396388715278047
1517 -0.010244583692518391 0.07207217966830004 0.030486840001745324
1018 -0.13402212691086837 0.18321875154429507 0.10006598197678702
779 0.02594351061843761 0.0069996453067160975 -0.03042546039172421
4518 0.08255008323411468 0.015032075614579808 0.10478632266254717
4096 -0.17500271320695518 -0.1380789072411615 0.05275192408498801
5653 -0.013411369384040889 -0.13415197527840753 -0.0077478983273239835
4934 -0.10663287543403781 0.1322356869209625 -0.03602586821965667
771 0.051887220627823416 0.053205820876496265 0.09495751253242586
5229 0.056769544566727684 -0.03320792218175618 -0.13403848238772853
2854 -0.15074469364633802 0.0873227894820157 -0.12043548230994626
2645 -0.08486725171140846 0.12739610761441555 0.012902633425210835
1173 0.04006225713827805 -0.1404974203963553 -0.1689063010215609
121 -0.1397070888624169 -0.035847858355005056 -0.10154668038659584
120 0.07364262097999047 -0.09625982578516157 0.11984826420822368
119 0.05368481631922426 -0.045430011231514064 -0.07227611221335466
125 0.20643620706347188 -0.05267058766787055 0.034394806020487424
118 0.04841678664052511 0.14531950426474674 -0.08039029903569656
117 -0.19034333821047197 -0.09925068083404621 0.0005924374402246036
1529 0.06226328963281332 -0.026764797313937775 0.021717148143493382
122 0.016052881718582785 -0.019179519536480463 0.132869023219929
123 -0.0789260240957389 -0.03843394223016094 -0.06636337989794944
845 0.035869273557026654 -0.03769891450112545 -0.07252663865348716
2529 0.002695328789239209 -0.0028656380316528294 -0.030055367236168563
782 0.09211095538677364 -0.0720259590599008 0.12896569351755466
1783 0.037648155676296265 0.06425770715955635 -0.1492119133309126
1187 -0.02062188917889569 0.11201799310266496 0.05799678385829132
976 0.027377973179235373 -0.04993259408382585 -0.0773947178969479
2961 0.05249944561982413 0.009518897853239713 -0.06912811766578068
1648 -0.15531810023530945 0.1019790063067621 -0.014565238455441165
3160 -0.11261773783953388 -0.04106114478150289 -0.04060948370873142
896 -0.06696027183994331 -0.057780226176904724 0.09903426221297641
1579 -0.01969979958459583 0.03820531120195525 -0.07631820542460922
5011 -0.06672433758072488 0.16485688035331997 -0.04033761070520686
4718 0.07341291234712416 0.05466584067702894 0.047800382029409866
3847 -0.01589429089775169 -0.005774981969334507 -0.1561164375309861
5458 0.02727693755536901 0.045496951978045166 -0.09245314985271048
6128 0.048341217511822396 -0.0194271732600646 0.025643118488537408
6184 -0.2209078478966201 -0.06509589957213598 -0.14749702296154965
6026 -0.20327943099971443 -0.014270640852055233 -0.00012080118438817164
5968 0.030590570923038872 0.24354555886424425 0.0001949187227146404
3961 0.008304158233943367 0.004794788157541856 0.03202916310894645
110 -0.0737491565358747 0.17052970315895727 -0.19958706734124243
1408 0.04060490969656809 -0.11158551072953303 -0.03566668723861293
1309 -0.011051270086740693 -0.05642939353194681 0.015538681903752315
1148 -0.04785547101483785 -0.025181943993612663 -0.10792582342640432
113 0.08646867309040644 0.09434423873458969 -0.16108998000383232
2975 -0.03683641936159961 -0.08233317138468736 -0.04404753374752908
1433 -0.027105902182001835 -0.1219778627640047 -0.07080358571619227
1115 -0.001684953124442298 0.11759335707265145 -0.026079492706877247
2596 -0.042798889121468967 0.14933690808766117 -0.04766810418423008
1655 -0.055286105486479734 0.05812628132621075 0.026378034759229275
2567 0.09136932684410795 -0.03650737245753882 0.1415955942575403
2601 -0.09489234366918219 -0.028548036942551362 0.10865796668361032
2759 -0.04803596098774651 -0.022007057340939874 0.039330026263010395
2383 -0.0077856174758100345 -0.0115735148983065 -0.15637099469367793
2914 0.0077400240777289065 -0.05940535414183537 -0.08327394962100934
3373 -0.035163377079446605 -0.021073064062995847 -0.13570763201609057
1811 -0.020764811790043056 -0.15500102937624236 0.17906438801749322
1610 0.013489738979711393 0.0700222458203212 -0.030314857468777594
1658 0.00730997030397895 0.08414018828043283 0.09766786031305628
5084 0.10355791143907903 0.21839200610066262 0.13123614311397783
5508 0.01540611942871069 0.02287641053664643 -0.0729360274272487
1544 0.10830945426167227 0.08889356751751243 -0.05239044392465443
5289 -0.009770112519380366 -0.04764465917346449 0.09527157688441512
6199 -0.12034390957368103 0.13069544452913498 -0.09751647997149487
5053 0.010819973013577875 0.2123253434995081 -0.03898721344296298
900 0.18304019713269049 0.025648227501448496 0.009304751504950491
211 0.15241566492532424 -0.13378141562553775 0.23671915344492847
1352 0.04921433709062179 0.040144199599681865 -0.06998045024494931
1228 -0.00924524181628018 -0.0890969200248582 -0.06698830843523385
94 -0.048261133109342845 0.05716512526841452 0.24043171849874964
97 0.03605872096115725 -0.0738980295564397 0.06581310358819266
210 -0.23178961103640935 0.06670669950629562 0.03280085042762268
92 0.1320841552452952 0.03376091133381699 0.06010996012906393
140 0.16547556864400445 -0.04193168196220608 -0.025467479112191188
95 0.02167440067017072 -0.023399837716919236 0.05337533866514207
96 -0.11069075512779306 0.0644933196184472 0.036955046498722596
144 -0.11102802195707619 -0.11848719083253685 0.09132230647334462
141 -0.05119511263022056 0.026053207218632777 -0.2034262482006773
139 0.08043199407887171 0.07652651242507538 -0.012515294684328068
93 -0.0809248700956153 -0.04005847277123913 0.07319048092319015
142 -0.034833660676162205 0.0004792077386082277 0.026640063773737992
166 0.03892791256391823 -0.1495450156389756 -0.14706133639700802
525 0.08572827521259097 -0.10575064799354576 0.11753926506365453
165 0.05740852307894832 -0.0742667689849641 -0.030954210188621267
146 -0.03526269586205726 0.02856932734635492 0.027953786996145237
168 -0.09720975129338899 -0.01557317252943921 -0.06315068922726433
154 -0.122576395514432 -0.06048050811546844 0.07838418925252857
167 0.017807686467014312 0.07315764340489195 0.03340236592521113
155 0.07013921009085422 -0.08131529139129622 0.13506820044203
157 0.013687678831628216 0.09182603703694298 -0.0937651297745032
3210 0.07509264542953534 0.015289947617656844 0.020162310694821238
1532 0.03791087169304014 0.011552697412594081 -0.07350204435613444
1552 -0.0385466590452922 -0.17003662590035906 0.12652905062424677
5031 -0.05113445064455125 0.09853587231034999 -0.002413436625455269
1079 -0.056645337045582604 -0.08244209397501386 0.021902202570540607
2427 0.07675619657660467 -0.034865725478374215 -0.006126648339764189
819 0.0399424772465016 -0.2325196940057775 -0.06913608199941584
5266 0.11985686303356541 -0.0025636611282803534 -0.0481292274119927
1805 -0.018522151741583264 -0.10210044431520421 0.02545176067126536
4508 0.025933830824130557 -0.005605759957499661 -0.14631961688897796
5367 0.06907722403679223 0.04233245319002743 -0.0003838017809800892
5703 -0.12731316229970302 -0.015259164940272867 -0.029164231943854743
4331 0.18967911870764587 -0.07655462208818217 -0.06972090482279189
2346 -0.04773491431091687 -0.0673602470841998 -0.009652767934443363
3182 0.034245864304431155 -0.011818233402716963 0.05654779142204887
2411 -0.10095775256138317 -0.020319329802706326 -0.07328210068899517
978 0.037051120698586584 0.005334652180783758 0.1291244043013004
3014 -0.06488407461806353 0.15596636912435272 -0.08793068447256411
3092 -0.009085051825640435 0.05307437508505396 -0.11346392579820834
3001 0.22362634422797983 0.13535767975717075 -0.050477346817919225
1738 -0.054249461003134575 -0.05003104537597446 0.08211667725287797
917 0.06783895336427845 0.027371239238803594 -0.07255253781845039
1707 -0.029439605704132038 -0.030349979755815385 -0.04650905980217654
2401 0.09307415586925444 0.039057162716037125 -0.10433553925836483
3074 -0.1014566679254014 0.016437963998343776 0.07177523615079522
3205 -0.11918855662870555 -0.02778515929864004 -0.08649209238100021
5358 0.11663994689468113 0.034540486347035236 0.02988360793947113
3021 -0.0003068115595297148 -0.08804575607053719 -0.017339965470094313
3148 -0.07334706970201356 -0.07545732259749771 -0.06289416521858145
3649 0.06593669264414959 -0.029780718889049738 -0.009818717495696122
5620 0.037690915818831015 -0.038120087473043664 0.08024026724353073
3958 0.12115093948579712 -0.14285667719933223 -0.07330140536744684
6132 -0.05754419123416567 -0.04846297490030486 -0.08259900973275616
5786 -0.05632222045098975 -0.2344700511259458 -0.08138079902777703
856 -0.022866329928739097 0.04709497934818976 -0.019951444973394107
1717 -0.05487883672086309 0.05545760139215126 -0.08356885807564615
1479 -0.048611379379389565 0.01912112373945923 0.0262329461675633
2663 -0.045557171763767085 -0.005450611163977945 -0.00470500162190181
2521 -0.165379715997495 0.03345376642171122 -0.00678266733732299
2480 0.11879593254214436 -0.03453260596037788 0.043614169317503206
3072 -0.01878396987651497 -0.03392015714755654 0.08054749723911005
3115 0.05376808521148442 0.11340876753985221 -0.046442271258483755
3178 -0.13872188506365424 -0.014390127969687793 0.1039194115270013
952 -0.14000397578692744 0.08383948083669587 0.08830077006957872
3195 -0.053411838879536294 0.1349267980973444 0.28202822148300094
2995 0.1682891612968351 0.01689745171986081 0.07731662067444066
2204 -0.15699253080100486 0.04191626796682131 -0.0027028797282532945
2377 -0.10546677764829986 -0.04777987500505041 0.09125474744827615
5134 -0.07475475089448792 0.01875607458553406 0.0001805290285839087
935 -0.12694112494771265 0.036463568864209275 -0.06695117742167435
3167 0.0010282885547414165 0.13229244047668212 -0.08474433704914372
4952 -0.023243430327715597 0.04840045883002905 -0.07748510611406143
967 -0.03960754370495821 -0.05335390942185254 -0.04730629748159393
4450 0.03497106714680126 0.05602167467269173 0.05818743699389535
4966 -0.09881880110103773 0.01856257427452895 0.12243360214461264
5175 -0.05295410778510551 0.10742394995580697 0.11849191794320099
2679 9.596868955156351e-05 0.0976835234298465 -0.024373710381992524
116 0.004867778827322917 -0.03160252808652615 0.04710288977859639
2573 0.1262312041071114 -0.12329728314815531 0.05049888056136305
2431 -0.09951356349004375 -0.1453993082822792 0.11363988937064415
2366 -0.06014205136308048 0.017311147017826916 0.10081751868762492
3174 -0.11639008964871317 -0.04588516026289521 0.05450998955937017
1406 0.05877426232697502 0.030533172887511437 0.11228480519528769
2658 0.012769065944189844 0.13979021443817896 -0.0027370535878749446
2922 -0.03981728865634302 -0.10626646911216245 -0.001598377579081755
1185 0.02201343600153563 0.020329584576791234 -0.01229806916345445
1560 0.03253237031594898 -0.0704498315268446 0.01161533795939151
834 -0.16316783573850185 0.011853907760992372 0.19290867519466628
3145 -0.051693561581269226 -0.003961240501995613 0.18345351208584404
3249 -0.15196375815043 -0.0428727693494419 -0.06816670263391565
3005 -0.10040298418079324 -0.07604878746800206 0.06537839943146982
745 0.1032125825911757 0.06338181967603165 0.02965645194531429
5163 0.02477085228790797 -0.08249112810385982 0.08211858262452863
2286 -0.1157319401040011 -0.08809073386823599 0.05405050894575948
2452 -0.08006874163319949 -0.11894973256649327 -0.036647666228525166
6252 0.08719904145668819 -0.14890221731166065 0.15642381766955316
4481 -0.07252273326072228 -0.0468944342357629 0.0073292429153935384
114 -0.11084770128147757 -0.03250124097390103 0.05260665401064806
109 -0.023223682297181684 -0.340095434159473 0.04493640845010152
106 0.09416465646996894 0.024142869893977188 -0.03174104938237844
102 0.07135043984535981 0.07119330081060189 0.0018409515440276259
36 0.006986090862619098 0.05052953658138309 -0.16142798183066723
115 -0.03698610028564261 0.09669037439601086 0.10165803220972833
108 0.1374371304305828 0.05208953867787543 -0.07248456061288076
100 0.21437636473005178 -0.12870753344348634 -0.06547067864730312
103 -0.022990676608005453 0.09060232233123967 0.10438765217151474
99 -0.04205392385705189 -0.11269861865797785 0.068317497598231
2812 -0.09504842531587593 -0.03125556590250241 0.08881354160329182
104 0.07632524102764858 0.0022283361399774364 -0.07789925961222359
2606 0.11005191609916787 0.012943158521540828 -0.11478659384062125
3068 -0.05793722614067554 0.05097890942898915 0.025223117074749616
2622 0.1558137897961717 0.08114967494731733 -0.21659320529743153
2370 -0.04350063068478057 -0.09629292692266016 -0.047225465490176956
149 -0.08285764520505806 -0.01794542453028816 -0.05887364835340928
852 -0.00881132322644286 -0.1232754717112021 -0.04833637949020436
2721 0.05008716906480412 0.045065534095581235 0.011622469644436311
824 -0.08689266977842083 -0.1495166489145578 0.0575877545773524
2340 0.07248528218519054 0.11896682603064147 -0.016052861416780997
2195 -0.08898010614329951 0.05667496524692159 0.04232382745994083
2360 0.02875970842843909 -0.06095035248909604 -0.14979910448208986
4277 -0.08824179790109933 -0.04608341234723819 -0.10054584221903068
5148 -0.1939162341711917 -0.006597490668442726 0.010300473243197102
3018 -0.08222526688669643 -0.12846243717815206 -0.028276979598755535
5984 0.0760705447656739 0.08276676289367568 0.15528277932064988
6136 0.013299579754183784 0.008383298891653176 0.0277546966323111
4488 0.1450531264448191 0.0497031332604236 -0.012395117457888795
2715 -0.14320565643058777 0.003427075526072649 0.06751776218484679
112 -0.15321801509908398 0.03204338295693611 -0.1592290907540475
107 -0.05214714382250067 -0.13530217791508398 -0.1206034800461355
213 -0.08751153018680301 0.04449749195463175 -0.05279486142334259
214 0.004315768026644142 -0.11136160787164788 0.07519177751510274
98 0.0096722699852812 0.03133802270865317 -0.10654985114262526
2162 0.06696081390012154 -0.13680622728112096 -0.06816670118011739
220 -0.11887372505875037 0.02935152113055069 0.12342090058525837
105 0.19160540317803182 0.04193386839804675 0.042320059406397575
2877 -0.021102538450398715 0.17643169908729292 0.12736501688914825
2788 0.14811713741226445 -0.10822620622928222 0.2618038692727615
143 0.12924387901509493 0.03371199313131844 0.08474708165566691
2600 -0.058068526928712165 0.06241990619757382 0.029418165524430478
145 0.0797462618576955 -0.0985484287163011 0.02939353159899904
174 0.02730242587173711 0.02518153185383455 0.04744664246392683
148 0.14155641989222756 -0.1026926766043756 0.1779520740983373
1919 0.05723284564675987 0.08042183813303087 -0.12162871454839604
147 0.0445974432915318 0.010015814313030922 -0.06400720610493892
150 -0.060289118716947275 -0.06619760243231337 0.16481816372082567
151 0.31768633398215274 0.1905925903447097 0.05310781493794277
176 0.07395017364112584 0.03757675768076454 -0.01308409412820042
152 -0.14574971985378837 0.06671841973240522 -0.0037999329461077197
175 -0.005821670216676055 -0.02100338837604641 -0.034563428411259846
153 -0.0007158040588796891 -0.11417879119082394 -0.011765273192886507
173 0.07284637657669717 0.032042442412318545 -0.11703183134815233
2955 -0.03931690155119212 0.08230446918976123 -0.001375631257825291
1763 0.12842161130765067 -0.06923819798157038 0.04847775574786503
4856 -0.017481231443510974 0.15929587345954602 0.07671859677257052
2628 0.037428558854430125 0.040872291441358316 -0.16475837564885312
2290 0.08917320287324453 -0.025751056096669937 0.006742795314328996
5047 0.06528700937631517 -0.004175547327368334 -0.02733031582256669
4938 0.10817581733039283 0.042575820452350005 -0.010421564278214184
4978 0.0010291834746922034 0.0867076947245369 0.020601202424052986
4298 0.06271956743355775 0.05218744013311156 0.06956708760972928
3046 0.07143794986965052 0.008286611197436938 0.031120632056480912
2950 -0.22180838750473802 -0.04852072172784456 0.022277864058683393
3661 0.07839838813789177 0.06106293185704648 -0.006539468403378113
5487 -0.03284091554314434 0.07349508388987351 -0.02340472282214468
1664 -0.13322109620828237 0.1253991573062611 0.06928144696351393
2499 -0.17494656691191332 -0.10294544041511283 0.1752892006091063
3261 0.04208025614428049 0.09578356347766005 0.12525428923915152
1613 -0.027433686728938686 -0.008150170614853248 0.049288684572964536
3075 0.10818239187593828 -0.06040809666746047 0.0026340597085374876
2964 0.06089108336454485 0.06688985740805983 0.058776215091055586
2434 -0.10321837774046459 -0.03861605189110157 0.002153042379657105
3111 0.08614051910029821 0.005459360352866852 0.21478541666238538
3184 -0.010918692440299473 -0.03200382918100722 0.03847070999197612
2948 -0.16845539669857834 -0.021481646498176396 -0.005836203229264571
3194 -0.06562422185886262 0.02715259971615825 0.07116474667150703
2319 0.022963034125380047 0.1752052933925517 -0.06923136026351955
2954 0.04202687671841485 0.12803392730656743 0.1292864828450489
3366 -0.05318702325220433 -0.2863680632618505 -0.08068580605810209
6241 -0.05801210197444436 0.07306974093380733 0.04642283277785908
3537 -0.1408008457182716 0.010850810406901164 -0.04444248746369865
5497 -0.02614148280803935 -0.06980888531882849 -0.11012749649019153
6002 0.015975074732976872 0.11333330018164967 0.05520863822847036
5604 -0.06602243259374964 0.009704639142292068 0.0009088114065459833
4451 0.13255139207899783 0.1260682496641313 -0.0001696789169727739
2365 0.07023346901533822 0.05657962801506275 0.023262278473402957
2414 -0.005864392754458452 -0.06994058176103507 0.08764797876402088
2323 -0.01072878105514545 0.08898131064543544 -0.014143649874800029
2476 0.10500950596839291 0.009103573953106505 0.07425540745767059
3220 0.05011704381771423 -0.04054635085402353 0.085534360494841
2525 0.054405156436802195 -0.11029841608495906 0.07994690662631532
3101 0.08795737772624496 0.07974165924337354 -0.03841793329915661
3034 0.03608557604237075 0.17786934022125642 -0.08032495561265254
2302 0.07311404784204284 0.1005998740472474 -0.03950767573840827
5184 -0.007794291110843055 -0.10718884401002553 0.12862998027674866
3130 -0.011208235893161552 -0.2013808145023958 -0.09285691729151506
2550 0.04081495435150705 0.09219463939896366 -0.021602959786645292
5477 0.09922654534292018 -0.1917942390561995 0.01720830665459527
821 -0.07984210876890933 -0.12176677472748483 0.13360081855706446
2493 0.07189545872174007 0.03653421170296246 0.15824144308900623
2232 -0.11224097262049511 -0.01540021937559484 0.019328420424056986
4651 0.032388309043847915 -0.07712826445515192 -0.057937834710420834
4052 0.12848354151886332 -0.060940792632502 -0.02857245624567097
5719 -0.0793563001868495 -0.05601389053850138 0.2326601152997547
2205 -0.09719586371099542 0.030492922724741935 0.053688290932052324
6217 0.06169896972871763 0.004751139196534445 0.01809184508552517
3369 -0.04558641349672761 0.07435285551134195 0.07994231335443978
6171 0.008423714778880025 0.004614536550080494 -0.031738269581639195
5794 0.057523328425199756 -0.12450229436674486 0.046527243354729055
2828 0.022466961312553525 -0.09117490322780047 0.029802464849534267
2933 -0.057984449147342215 0.10802181296881722 -0.06772954027577248
3200 0.0461710324035529 -0.00880538968449639 -0.024548035760409453
2228 0.05857397988048684 0.14752058295336698 0.043499022133618774
2780 0.031812968713835675 0.05551292193921859 -0.04584261511672855
2791 -0.1181439940310922 0.10962472047041621 -0.03398230014773428
2939 -0.016928066040124517 -0.12046129484988259 -0.08923405767487798
3175 0.07625941857091179 -0.09522746824472515 -0.09898600075922669
3040 0.0048302937030935585 -0.04012548966856053 0.06931652123883228
2960 -0.09615910386666691 0.04787028600943472 -0.051874593849316586
3207 -0.10404576791412834 0.022328981682622692 0.018545761672284434
2689 0.035389544555020136 -0.02836440469235559 0.06740582544169346
2520 0.047730505137274115 0.08854018088304054 -0.00036759127783327593
2501 -0.10185483757684782 0.0881530021620411 0.09758599108752397
2296 0.014528551102350863 0.06177430677883286 -0.11032509624414116
2270 -0.04366141728044163 -0.10530331310930603 -0.072812960953588
4231 0.04056550817238998 -0.04637513788445489 -0.03602148752566433
5494 0.05682090181648883 -0.038960817928854065 0.1291608015103651
5795 0.004349010424951279 -0.028972343786589118 -0.03654056741095194
2405 -0.08596766803432523 0.011711654622269549 -0.16479808432568965
1088 0.05724526902880176 0.08714254445004807 -0.08503006678465926
5886 0.05776983732587272 0.044177595137879555 0.11074729955901721
3774 -0.1374990877034053 0.19910672672847055 -0.0360539020010765
6130 -0.06109790481818477 0.11657201968045021 -0.002346267514232593
5377 0.034300939738575245 0.04481227740765179 -0.08946264173738519
2676 0.022637928832399148 0.10103555900663774 0.0586300975754816
3222 -0.02512558577150792 -0.04456916109093908 -0.024872303730681347
2737 0.02534516310050805 -0.027051159706995183 -0.13038213727722048
101 -0.10616019698574938 -0.037079675321875824 0.10322614846216469
2867 -0.20693626073364957 0.058379547083003754 0.15204571198837735
2668 0.1497358751933848 -0.11004753646524916 0.10810398283464788
2821 0.12354588020740383 0.20008458988053096 0.09690457361303151
1958 0.011183848087999458 0.030846806512147613 0.04250306437302377
177 0.07580850300931587 0.006798128033087674 0.12717382513389608
3208 -0.12975911587737232 0.04894889601241432 -0.07456271092960275
2454 0.07102310802868389 0.011044822892055772 -0.07769752359194296
2487 -0.11608966281992404 0.09126511372722997 -0.010085351419552704
3063 -0.03526655159597238 0.04414870476773439 -0.08481101222080889
1744 0.11551116412596597 -0.024331796951821416 -0.12710207623012465
3116 0.056683627141813415 -0.14040398590860456 0.15988772200154316
2442 0.11667566829073425 0.023903371992487536 -0.09903984213510532
4636 0.16604225435141362 0.11825940741682835 -0.09151281565098981
5145 -0.014247632542599399 -0.11715708025080061 0.10177254324198003
3237 -0.13816507145456064 -0.19634375348145156 0.04727357136793195
3532 0.010489739338470234 -0.018219418228736392 -0.006761809002693391
5636 0.002013953314395968 -0.024502255214567434 0.10086424700268799
6138 -0.017415619886884448 0.11264068675612657 -0.09163191777452054
3218 -0.07357147168559494 -0.10454223046941857 -0.007025620960474599
4985 0.028291507348996582 0.05783236522527703 0.05995442392908412
2438 -0.07304054408714832 -0.13605395476144097 0.11070913983660849
5884 0.11194348222897052 0.009105862113961395 -0.0700064935838172
4961 -0.02437449288058248 -0.00407945013942947 -0.04157855082234296
2644 -0.012637629198579317 0.07162506593207749 -0.17096367640605678
2882 0.02042328693515983 -0.07034897566325846 0.029303806852194435
215 -0.10901975012514253 -0.0988554845491758 -0.09957958284317571
2551 0.12943307968011195 -0.0378562829734715 0.020529568366795814
2075 -0.19060350595298928 -0.0787079093924465 0.1490917316953558
2726 -0.167851449260357 0.09888251902518877 0.06474275553744471
2722 0.018754863965470374 -0.037232378322347257 -0.2505058425383695
3042 -0.025976414049033655 0.006598574496911019 0.0011839601023081944
2200 0.028866214354366197 -0.043297636586837454 -0.03295125455635752
2264 -0.12092654975728573 -0.17627417097799275 0.009998406760910742
2263 0.05154804108632645 -0.00602185993289577 0.1126032467962658
3217 -0.11040894687558216 -0.0003795961116722056 0.1486438376885336
2238 0.20001912609325811 0.15272143022437334 -0.12526037659534547
5793 -0.15040417457964722 0.1651881214769936 0.07574016326482008
5102 0.10374171844043374 0.08928871882619535 -0.04192670777924279
3171 0.1487361899893224 -0.060336631361955106 -0.16949925016053824
3965 0.15854696770095322 0.058248604684418975 0.22714970361628023
3859 0.0017101427327267727 0.022950984758538653 -0.05160562766669431
2303 0.035141106628777424 0.0492042103064301 0.055894023633760434
2305 0.0001641284962698008 -0.020311049975639112 -0.14668410633838627
5352 -0.07262739414459306 0.14979108911929248 -0.06741280804979721
2924 -0.005336733899844636 -0.11755490938536087 -0.08763873317586038
3000 0.03333879513079631 0.025582994272382215 -0.09186592266298424
2533 0.060739286320851155 0.018084956995732065 0.2244739897729158
2519 -0.04296771895997675 -0.1355453474001706 0.006872760588061778
2222 0.07758246576916387 -0.0776878962929998 0.10290682622429499
2379 0.026816936584802664 0.03887981172630244 -0.0645772789464402
3149 0.06589345935815363 0.10072389639457505 0.04552803840398664
2502 -0.03190456345320941 -0.10718079907564204 -0.03294153931853581
3048 -0.04726513707411635 -0.062389515116475086 0.06763004821511141
2314 -0.08630997299500523 -0.22233118687859751 0.05295379979010541
3230 -0.12125384192896348 0.10318975294316947 0.0566923247918127
4944 -0.05752485118328721 0.06397355886646185 -0.10155449288922452
2268 0.045736617259261265 0.036489949380205916 -0.09270554434181535
4928 0.016462796887536053 0.0009809449272958903 0.17154004552231678
3972 -0.0636190589525639 0.0441224027351239 0.08541319659963831
2549 -0.075270984316665 -0.1411379747336133 -0.056362927523725445
2928 -0.21020587264338905 0.10936249190859636 -0.17162585343605466
4559 0.17827285224819645 -0.011405292164894729 -0.10453665220534003
5778 -0.02186247357923151 -0.1452399479285469 0.03879011758739992
6098 0.08566215229792398 0.03290898387624592 -0.12252193398086954
6201 -0.06678827194335245 -0.14327415781493386 0.13634728544073352
5943 -0.196655067897537 -0.08144745481418236 -9.794407072785238e-05
1957 -0.07570320985733343 0.056313185436207884 0.05649354779649502
2293 -0.07756211327540911 0.09816556312339703 -0.07657197612190697
2354 -0.017147905043772758 -0.041483201389103885 -0.05424739123681824
2165 -0.017480667804652673 0.10783389784799041 -0.04087983417950337
2445 -0.003286299170292644 -0.17181549944140817 0.10422847342028677
2930 -0.13694733685138843 -0.055577177601497066 -0.056970274057268004
2262 0.03019289598758915 0.010445108310539143 -0.16194002227615403
2300 -0.009745083956118212 -0.006672673178574267 0.03536187637361107
2199 0.12170511343832627 0.04696413635670153 0.05153802135037587
2936 -0.10567371923921638 0.01822264048906612 -0.04290731131997346
2500 -0.15175734974687136 -0.10630238799399899 -0.02651165016413601
2308 0.1648301118245478 0.1349715017937975 -0.07979729289164997
2949 -0.07776002888518242 0.15110372624113946 0.0757321730160612
3020 0.14978678970773077 0.045073365325344276 0.07323892683916908
5099 0.080044315617302 -0.061901822641303984 0.08631334389534867
2970 0.022008357182908715 -0.06124421947556704 0.046223297271121865
3023 -0.07984440773885497 -0.026948287697806557 0.02971663751197917
2526 0.1571525114361906 -0.010611832061322954 -0.12864339581670656
5639 0.08922865915090955 -0.1090301968595577 -0.10283924643531003
5644 -0.05071394866758304 0.0031422632363958666 0.05271708762959779
5153 0.00931544712772963 0.116320812148688 -0.046513819925953846
6245 0.005290269597422403 -0.0455303169891235 -0.07310137529728507
5164 0.1585891616754939 0.11560573643720387 0.08776714288614036
3062 0.028579315943923045 -0.014211738638662432 -0.08989732631743852
2592 -0.009378932159682937 -0.11063866308295006 -0.288070079220395
2277 -0.02532104784148475 0.05058787425521691 0.13097005693106664
2967 -0.08007655302708637 -0.09652749636708059 -0.05883365290181115
2938 -0.2091145667019314 0.056514888863638806 0.012902703383543036
3142 -0.19778910665224653 0.005656896741194272 -0.15539685033307538
2488 -0.0214615766091185 0.12864861524164628 -0.0817483431668895
3188 -0.07861153752459281 0.09317308778268282 -0.09567056947453974
3007 -0.0622118942578414 -0.0038780673801063134 -0.020535924618798496
3064 -0.14302778968501023 -0.034962399404495574 0.05235946058659566
5043 -0.002968796095897468 -0.02016546320201305 0.056761918935514195
5342 -0.017197106534164293 0.003894437988465239 -0.07670306382407113
2996 0.064366624530968 -0.151979179157184 0.005446297026378513
1634 0.11166640867114183 0.0531906868743095 0.00791246037920623
3960 -0.13627692401364278 -0.09600598389094282 0.046533746001348054
4582 0.035790998446250485 -0.0651915605238779 -0.030641162626026588
2457 -0.20399154271250158 -0.0620668508487431 -0.09598439031992688
5678 -0.045797016424153264 -0.02119237999825205 -0.025832248822571267
5798 -0.013949152296185069 -0.03139611802709565 -0.04190705973702202
3065 0.017883745420447437 0.14927404067373776 -0.03341813730122707
6172 0.02860546247717705 -0.0215090996266875 -0.046301090637400275
2647 0.09019632599220606 -0.18830819993095535 -0.09699386663520151
3045 -0.08179422097068627 -0.07300761014346506 -0.10668054199909593
2762 -0.016351329560704543 0.005223667378343046 -0.03343442229730657
2422 0.04138890081522658 0.023703331408694288 0.05465287785177678
1939 0.021071215263782694 -0.1527263614362965 -0.10310677708980823
2697 0.06553060823122665 -0.02900712114875826 -0.09594482285191602
2203 -0.1541095521768266 0.031563007100151544 0.03224608348452301
3227 0.07914265660623428 0.05323937042456587 0.024884709219175717
2566 -0.04712781118816142 0.04337482448557786 0.03168749435229051
3030 0.1141564053926063 0.02445416384960106 0.0022841513790144066
2609 -0.00692639878412973 0.17399723958779587 -0.012040372122112897
2557 -0.08623750053728248 -0.08663672109495606 0.1011329834023951
3181 0.039191650927511264 -0.13872478882861436 -0.11168963783885101
5160 -0.16294541549882718 -0.04119199801329765 0.023718575705480888
2625 0.03808146772277504 -0.11953618305937963 0.19135046547194082
2400 0.04607898423749264 -0.10959609409058259 -0.026009572955292257
4615 0.03813888209493718 0.1340492794042885 -0.034771650444279975
2301 0.11235025685621035 -0.10287069665232754 0.09873389089341425
3118 -0.024933760650327576 0.12582037873318452 0.10935377447628408
5407 -0.0863449682822245 -0.2093632417409639 0.08611152132412041
2528 -0.0075508316531960554 -0.01404155319584557 0.02977604419780385
2419 -0.047401424735875865 0.017761657368983403 0.11772470369175726
5105 0.08916897700887597 -0.11076541583779537 -0.02171226614170973
5911 -0.04192046126680874 -0.10955366510857802 0.21752581803809107
5746 0.07519772752608964 0.17143168705758297 0.13124819171675445
3089 -0.04503884809522622 0.12402300476771665 -0.06059935431880145
3083 -0.01608491756144754 0.1237404320576797 0.02447030073864314
2355 0.026925581909434546 0.17102316064787282 0.08821064642160178
1890 -0.026976984887229955 -0.11147771783368639 -0.04703889110077388
3050 -0.06059865670345024 -0.08145908518684425 0.07867751518859642
2235 -0.14182696351912913 -0.007027411667619237 0.10031381557295066
3067 -0.07725967657186988 -0.20950620551930885 0.30161303707353787
3239 -0.0873462821922217 -0.05543856824438852 -0.036156385602687996
2920 0.10937266939016602 0.1326570583639218 0.05975597213867756
2217 0.10640050174017263 0.29135846310203556 -0.023347191885009503
2391 0.07473223415931605 -0.015239036041539289 -0.10007649613999427
3037 0.10801724735746905 0.11088515872610197 0.011662891100878828
3098 0.02197150406785192 -0.10467157767519963 0.08755118881812109
2356 0.03487204678241123 -0.03858901163151981 -0.039657420532805
2292 -0.09875651011255701 -0.059081822841686955 -0.021967347707066046
3228 -0.03054709057970157 -0.0953028351984001 -0.029363975163768055
2941 0.021133524493438045 0.09514978777497796 -0.04750198021470359
2328 -0.07139923611007781 -0.18389871236576294 -0.11692793397180441
5041 -0.0059396320021657505 -0.08489550874948389 -0.003245984282428631
2426 0.011367725447606284 -0.015489167632887768 0.025015993520367635
2316 -0.14318656879682684 -0.10886432806947648 0.05979153011520791
3940 0.12949737779183548 -0.1570106128733724 -0.05882861212633395
3256 0.1773459558929249 0.010625857576434994 0.03331772363695283
2242 0.07046986710701733 -0.013303332509003646 -0.08751323800234513
6134 -0.11986083893675202 0.02949085025306726 0.10294235756477299
3033 0.05655797289653002 -0.02139597684227395 0.014331949187963844
3139 0.07769285335932159 -0.12186403210320036 0.03677045079472997
2146 -0.011255160991082803 0.04463551826659721 0.15138678112672538
2428 -0.09306935286433882 0.13131785163083035 -0.047689966829320106
2532 -0.004144014180134499 0.06356335272529831 0.04694660051743425
3095 -0.05339071740653695 0.08512755174802396 0.12440209778470387
3216 0.03070555405051502 -0.09411790775610676 0.028430200475802914
2345 0.0913667113702183 0.02983986101956474 -0.008567284809327828
2256 0.13323044492979183 0.11426669403394868 -0.07514694429016994
747 -0.02948393796749373 0.13909942082992124 0.09119700538581998
2349 0.04945006050282949 0.04991652179288374 -0.06895463725159355
2953 -0.09964512722903072 0.02216264323405745 0.043703318564508084
4037 0.032459324651570615 0.14187435412622343 0.17248352527808297
4599 -0.09168671388309346 0.027508350570876923 -0.047611419921317684
5479 0.01695892415668007 -0.10473181769931982 0.031729114271095725
3341 -0.1144017317359264 -0.03490416209820628 -0.04104332860123213
4239 -0.1726926894884815 -0.0455169380424712 -0.09778643741086349
4041 0.049102591434913766 -0.050101328009018495 0.0991140181440082
5971 0.10439036980211534 -0.23034110938908084 -0.001125443568794758
5466 -0.07305458712310091 0.01710778968982635 -0.02673884337181258
6056 0.1242510306571644 0.06611108690770187 -0.09318027766152788
5405 -0.001446581840403072 0.07121743771496349 0.12085238939347102
3152 0.10088124908238483 -0.03736356917099798 -0.07006861475571828
2085 0.09446545079506916 0.1669409919070041 0.13071134582933552
3097 -0.18348563435797144 -0.09265533028625147 0.04120242522400832
2980 0.2593457968622655 0.01944355483453619 0.030300331908953367
2475 0.05393014372032813 -0.033602911979817796 0.07619577535651917
2386 -0.029986095695989583 -0.1479455920635765 -0.08999115469978343
2945 -0.029423010027849826 -0.12247407583377215 0.14197892647561577
2403 0.04709012663684037 -0.08714940990455823 -0.1584038989475609
2424 0.020543647073175575 -0.12580317251581202 0.1192276419793529
2983 0.17645794488792382 -0.013442119540987613 -0.002639068226977448
2460 -0.042529881184485745 0.15118921473892702 -0.04704826924820268
3060 -0.06286595092867536 0.05271776141414639 -0.002645259449211365
5218 0.06633732049602761 0.17186996695882187 -0.0204618520476891
2212 0.1859655381257528 0.10005145277790689 -0.0329427617343782
3019 0.031006921535942596 0.12283812734365472 -0.11052459263738906
3624 0.0495336568659989 -0.038403586961687775 0.16336243675087148
5183 0.027314025939482532 0.10685220073761488 0.022766493804752194
4671 0.0817940302169041 0.03799905561233602 -0.07600768552968916
3099 0.1207784532670612 -0.02747864672994963 -0.10700581210570276
6092 0.05892929783324033 0.08680188858261542 -0.10636366316089504
5881 -0.17298531269520212 0.08656330198143845 0.10346707559815087
3406 0.053616642608715306 -0.10673233735358975 -0.03385024290374998
2536 0.16138515701344686 -0.08414849358977836 0.08308343561499584
3193 0.0865180000359593 -0.10824408249869481 0.12805663568032868
3159 0.06949614108210514 -0.04080208495743545 0.12151872284750331
2444 -0.11415583885282757 0.10010087992655037 0.10112947382016481
3196 0.015918190951314144 -0.08753898109917095 -0.03137956532687658
2818 -0.020705428950633778 0.10290278817286849 -0.029616614727112446
3015 -0.09915637349722166 0.0005659394740309825 0.07084428858700041
2593 0.046228986838054605 0.008429407307130756 -0.14697613815457813
3076 0.0357273031501119 0.023304705794381757 0.12237234873768092
3125 -0.06964091942959502 -0.01621523619240074 0.03681754070279087
3197 -0.09994946320758628 -0.001969537076613785 0.05319991176328341
3131 -0.04369613613001945 0.1781681329370865 -0.07284544195699226
2463 0.10149099175103521 0.024121538128423593 -0.2529904501518176
2321 0.07469254619329369 0.018362280950498366 0.060513437064316764
3032 0.0027981900195406997 -0.22510564679097975 0.04625725617678747
2236 -0.011317091108401248 0.08007572936023137 0.11054349583146672
2271 -0.05134395843921845 0.15850646992053088 0.10675065434830211
2331 0.0808436117402235 -0.033670208340753696 0.040249758754223326
2509 -0.07595732055948584 0.04565213452587968 0.14073071762272316
4541 0.16622800001809906 0.01855107536353763 0.13947702473661086
6015 0.16336951832724586 0.16186293102278806 -0.10542681276878699
5568 -0.12533719903486223 -0.03794222679693496 -0.13503809360858346
5353 0.0685942338668145 0.04357881546287006 0.04491200876693979
3651 -0.09998188452535628 0.023156202331821207 0.05851869002899377
5098 -0.001102090552985673 -0.17968903207075312 0.05682624084119517
3650 0.042632695652675544 -0.08017965014092897 -0.22338597216599668
5765 0.04771322767060294 -0.08405407394659704 0.02900177974464806
5785 0.025159049357747647 0.07267476445880756 -0.0896767867433224
3242 -0.0065158252325377445 -0.007617167795821261 -0.10243532587231363
2515 -0.019329565012405816 -0.03036322841973908 0.005767161751382831
3123 0.1709852703850896 -0.060675898660903435 0.10052686768771682
2309 0.2650786289239811 -0.0930793364626937 0.012321067833943223
2372 0.04816045683611431 0.2228527677548334 0.05150938082286607
2441 -0.04888178347055444 -0.013125490794530148 -0.02027370949160802
3120 0.027843724950040095 -0.21757449521690292 0.04821866399370075
5215 -0.03341584390202807 -0.013923252496740098 -0.01770591388931253
5132 0.12455317590871216 -0.002462420769971908 -0.03947748482315081
2218 0.02542058742541981 0.027880657840585358 -0.09676356152752283
3017 0.055112979184359465 0.033935139558762796 -0.017936790097594836
2283 0.033609768995493436 0.08261281740926993 -0.06090912244858095
2522 -0.010027515377598568 0.16757733291288582 -0.044049682990721414
2540 0.20455244326173172 0.08745353038179599 0.010734671363420736
3737 0.09245830264908438 0.0861777744553599 0.045296290621383524
5034 0.008791290476204873 -0.10673605169913293 -0.018417734066181073
5524 -0.010518644621206795 0.01564049136539654 0.18963776799062326
6163 0.10173631161221255 0.02302749303816804 0.06090244931399375
6222 0.007685906572158403 -0.03298285940607083 -0.0476297707091001
2959 0.04381917560805505 -0.0018592525548661257 -0.17093456404013815
6203 -0.04035724860380991 0.015107667954224937 -0.13755768698462054
2384 0.07991320289580214 0.031977364637773904 -0.10802520380879521
2496 -0.015329924092188618 -0.025302467298439796 0.07424699340636859
2926 -0.08609870793910213 0.005541541788552075 0.11607586858156375
3117 -0.014404584628648215 -0.17677028962267227 -0.16342849547515287
2482 0.14816663978491967 -0.004855596849578873 0.10345710458954153
2991 -0.06390957985885204 0.034397167373532586 -0.10026379570822105
879 0.015630196959593383 0.08157251511973454 0.096601971650246
2966 -0.03136826959362028 0.2207642728947431 -0.12814803333613412
2497 0.10047839863772576 -0.17875305818486797 -0.08112008151641549
1059 0.16629472665674672 -0.08031445316548942 -0.03346339572946663
2498 -0.03141234656532077 0.07671733581419793 0.13305160400092866
2362 -0.03830919359804833 -0.05298382791452223 0.1250819277649447
2433 0.044423803901653215 -0.2470848762734321 0.06786897988293737
3011 -0.048238214154295016 -0.0013191613519502382 0.11202402718186388
3177 -0.025209312961972083 0.01440359770736757 0.028875100809048614
3618 0.11251665271895209 -0.09917582740200598 -0.02986576257987402
2287 -0.059907150319109315 -0.0804111437440048 0.07122730801957239
5713 -0.10959757401723588 0.0494821700318349 -0.1158301583142073
5781 -0.07615451009838334 0.10860873779900329 -0.13568215714280774
5488 -0.07476079450967452 0.020910908964168404 -0.014993664007004009
3121 -0.11053294912743934 0.14036895353314338 -0.022492455552141053
6045 0.2184742704664775 0.10502550627943241 0.0038312159147798237
2687 0.09132261110753845 -0.002287886748420131 -0.1388829886945866
1844 -0.028359524232108146 -0.07771280270121267 -0.060630474181967306
2030 -0.16694820194017232 -0.10158199073283478 -0.04912639123330317
2318 -0.02884741652791157 -0.09935377182495228 -0.06951266986574417
2486 0.10340714412263184 0.12378659501611033 0.035435294088445854
740 -0.26887910242099644 -0.011159315785210906 -0.037110148249978936
992 -0.05894257514016744 -0.19063929923635148 -0.10499977545975081
2408 -0.07871944559507038 0.025669226541412127 0.10645423247076227
3113 0.07123114192357023 0.22702658432065548 0.2193797526194048
3004 -0.04600768793117632 0.07885665494261604 -0.08439867787984331
2250 -0.11997620860620936 0.12613961335212717 -0.04797699881129056
3876 0.17069690067451865 0.034149428436577145 0.010543035243872834
3035 -0.04372309244714398 -0.12591246278600646 -0.27993680366162366
938 0.027015349715907397 -0.027191521102774497 0.005064615608261224
826 0.022405179712455623 -0.1638480394837414 -0.09913719609695593
4221 0.034602633985122026 -0.0041058647417388135 -0.02261748066337386
2990 -0.06990158227313704 -0.08716656652730446 0.053063532693257934
2534 0.10877081937029259 -0.0772284637599783 -0.09791586389824565
4725 -0.12302329548502315 -0.11247858624986388 -0.08449105160157896
4485 -0.1417139816375319 -0.05156382150767801 0.01796507707163863
4957 -0.0012895429023746467 0.02507171251367886 -0.1720374236249882
5220 -0.013960093984859692 0.008647680043031776 0.0037160861632907216
6216 -0.04447499280808153 -0.07102898429686373 -0.005755652762416231
4683 0.10629329546651219 0.03939346217244008 -0.03981478252227533
5908 -0.14989445639516522 -0.09563663621419963 -0.17134975784229617
2385 0.06013584146623536 0.09504910725315675 0.1185806109268304
408 0.07604942579296685 0.08703176267241862 0.045551877701303894
3053 -0.06327446332020656 0.2256376542288463 0.07230024253974288
2269 -0.17051880665187197 -0.21143321890284802 0.2675507743617698
2406 -0.09548772521824526 -0.03897827135958626 -0.07181747655954328
957 0.19958323054038624 0.06620452529220021 -0.1033324844077338
929 -0.06084762064644817 -0.09520927959606251 -0.02588716411590512
3061 0.022501765210449935 -0.005375823803201271 -0.06465917949613763
1001 -0.07102085507955003 -0.01163114147875168 -0.013112398259779992
2343 0.053307596325921046 -0.016880225035786442 -0.1278086898168034
2350 0.045651304560185235 0.05267380045331712 -0.04774359578758891
851 -0.04810673139792837 0.12024338791992363 0.06863266322959521
971 0.0511245555575951 0.1380653921670245 -0.11169980450596552
5481 -0.0008022100391615627 0.021348439624237263 -0.03987625331294731
2464 0.029806397831030382 0.10974749939193706 -0.10554034924853184
1555 -0.04203840737523255 0.148726696019312 -0.006369850746901072
3862 0.041176357913795175 -0.03404918712866191 0.07473575457294478
5942 0.023703550460985767 -0.04928931753031287 -0.042983131788899114
5815 0.024228541911971335 -0.13610470366842756 -0.049794478276766335
6129 0.08917648704004288 -0.05799540485179391 0.19313216237016248
5642 0.10063003441893721 0.14533882819765404 -0.01185412376478363
3041 -0.18975514414296965 -0.15480889794461022 0.052036550934286455
1869 -0.05451121089504477 -0.040871666168314745 0.04468809523137617
3253 0.04847329869594644 -0.06441616135671469 0.07060139152766781
3187 -0.004675984232960877 0.0013843688564352565 -0.010047923989081683
2929 -0.07377952399156275 0.09392705514636747 0.1046847543905961
5046 -0.040720281436343445 -0.031838895509658384 -0.00162196033483792
2535 0.06035768557223539 0.02921816433025528 -0.04080360747120931
3110 0.17308120056586318 0.06440945702359414 0.023711513962672067
2214 0.0032453928692175466 -0.1663163150737179 -0.0890239202616209
1542 -0.09485453551364159 -0.07166580909419394 -0.006681981751743537
1660 0.08911508171196694 0.09420982880828652 -0.052128952819444484
4837 -0.26866143405467063 0.12085599549676627 -0.12287805652742964
3834 0.1602868534009944 -0.09485936722882697 -0.025003147193723617
4926 0.048553605187358614 0.04878165057025781 -0.08054655686130541
6244 0.07128707625202502 0.03621881838484914 -0.11606587896662206
5664 0.06324086919302718 -0.144169629364838 -0.13831421537354469
2310 -0.08370401749472021 -0.03867526947106011 0.019652344552740165
6133 0.04356265125930518 -0.1499845693368155 0.10004650439046098
3741 -0.02412391395640774 -0.119661751536492 -0.04439709211364572
5537 0.13512365545121513 0.0796404105127392 0.012681115330480625
1150 -0.05906481989081612 -0.04760803808378837 -0.10487195606471068
1639 0.09204016227316184 -0.025078147649718767 0.05171326532043151
2888 -0.08578199835805381 -0.007401453817107967 -0.007166352277184908
2813 0.010195444995425525 -0.012306140547088132 -0.06358821044747089
3136 -0.0012398248535144402 0.0013295817336726572 0.13572308869434432
1608 0.012170253660692236 0.005509095211722714 0.22136075628014795
2415 -0.0309337079812625 0.08078634474068953 0.05200592184321775
2997 0.01744405544760512 0.016526173962640247 0.01915809732196852
2201 -0.03891326136172055 -0.006192861239241785 0.00017447391943869756
2402 -0.03417853131674046 0.14326464670738867 0.031618923883775615
1693 0.08646735452564827 -0.20665220079511 0.04510817679545452
4965 0.1299878417782153 -0.03814190588665803 0.0014610422985553654
2273 0.050811863855203525 -0.14214657022120006 0.14766439590879038
2259 0.0017389781309190677 0.08059393941387705 -0.05972163318667559
5157 0.08845668292472168 -0.09192780967097261 0.09238676813517588
3506 0.07683204845104828 0.04173968775252585 0.030816099817238443
3168 -0.06730103545155783 -0.06691464565196552 -0.11189699227437658
1734 0.09519533280034072 0.0008428998537177938 -0.02805225074432587
4237 0.08285902400914774 0.05268610600792417 0.12439187515984182
6243 -0.1595893199370348 -0.16176732636432653 0.15584359298350542
6236 -0.025688660184069956 -0.09885171255239905 0.019575885886611355
6013 -0.17563738440401533 0.06751845747108141 0.1355101970132461
6202 0.040517878143153614 -0.16801397997969475 0.05462951387711936
5910 -0.1078248576725319 -0.02801808451333256 -0.01254861267238866
1651 -0.12798963318880177 0.018049311455782042 -0.10840532827247322
3163 0.09619823298765377 -0.15647608364965376 0.0622745701907115
2884 -0.05483408500961044 0.00967366096838582 -0.011270862022375677
3009 0.08967328115301561 -0.1883953415153641 0.1801260195419236
2934 0.016615605932618037 -0.028155456256017973 -0.019594554581148373
1795 -0.03871564962140697 -0.017513833060643656 -0.09299382672544844
2994 0.07924943805810725 0.04280967605186103 -0.017900588091423583
1603 -0.026320944071993486 0.08556952506441906 0.10876622986093493
1703 -0.07589766793708017 -0.050016261071221084 -0.07135943988461628
1819 -0.013839308689752462 0.01665443797231258 0.06479667122578545
2974 0.05263202485253268 -0.0239376519947684 -0.11193369411298573
2395 0.02492590702916693 -0.06351583990396126 0.0034700600138559273
2530 0.028448393056848764 -0.009589312211606325 0.00810713358496826
1818 0.01336864326864547 0.07923006608253536 -0.04410632505719109
5223 0.010787947770960121 -0.05656479821337121 -0.038276284887158965
1750 0.032709204110247955 0.014744432558954846 -0.10023560293451086
2423 0.008339457791474578 -0.13221742136984196 -0.07086247547538298
4963 -0.10316753035720232 0.10011228808015335 0.03436660008245238
2514 -0.14109987151463746 0.027668409970301615 -0.013736478607127319
5490 0.014371643220106855 -0.10707107393801134 -0.14158911666655424
5267 -0.22311718360488636 -0.05265711936366525 0.17415926677601717
3246 -0.038437179735266475 0.09298624819808614 0.09502614985803248
1015 -0.05288835417358387 0.07103876803173963 -0.026152781164787163
4228 0.05794008042847529 -0.15483249711918978 -0.059856726528835724
4376 -0.05483042529063948 -0.04226800258750002 0.023238422155401752
2394 -0.040670294374925496 0.06792560035619412 0.010746693653517799
2998 -0.07748554708798186 -0.11601458035533614 0.1319115133611617
3548 0.026330612964579985 -0.025693977179790498 -0.02121838476958724
680 -0.07169892549332962 -0.26226524834176673 0.17965149377205739
919 0.07757206427707622 -0.09917236076361619 0.14363581012439958
588 -0.03219321893309311 0.002569091556854343 -0.10838426186911153
806 -0.004942634956385673 -0.019118110550964844 0.08942840516767664
893 0.009576492022697334 0.026770767866637776 0.025536417576139427
1609 0.11899523894255284 0.1475660761357281 0.01256330061993051
980 0.012436598276767089 0.06552340205506678 0.07756584336786751
1473 -0.14497855191792 -0.01422347173470553 -0.0467859155798171
1797 -0.010291936173519997 0.087182421356575 0.011248323225551058
2977 0.01664841289695236 -0.06855830625073124 0.04109686823765547
1662 -0.028042115186667615 0.12244163983132175 0.052156066570072254
5197 0.10410624993856016 -0.05402690860063529 -0.12251263920875147
848 -0.09056056643697835 0.10096982500624924 -0.03163009901514995
931 0.07623064869554007 0.021413532812887888 -0.09369768953187105
5088 0.04629859998902147 0.14954746282512996 0.11571962396338273
5071 -0.0572101092475842 0.20956497822444473 0.02165596739240432
3543 0.2054498701243788 0.03427132350026754 -0.10292444028513277
5871 -0.18260605668259183 -0.030768990177145124 0.013146800149534663
1499 0.04490793290795114 0.04996607610506614 -0.18917360052823903
654 0.06743257674206364 0.013984302256194712 0.1428430738969769
2418 -0.15274900626687782 -0.05651802050747565 -0.18287124254638998
2756 0.041944989346353295 -0.09430393707642276 0.01680775567038047
609 0.011149672602163624 -0.04120822731304218 -0.015484512119137046
1395 0.05937778852508728 -0.1843078480684896 -0.037371397890435906
1515 0.037175602416617375 -0.08546474404308706 0.12932423917885022
891 0.09424411649684944 -0.04410950443947849 0.016370003301597626
1012 -0.07291027101058611 0.029188804431448816 0.05332595042597702
1472 -0.021338533105665317 0.030759802844714912 -0.02427860106501254
2440 -0.16113129435270618 -0.16176913542402016 -0.02248535287568602
883 -0.08448280644007951 0.04464493672181549 0.006212642029552486
2260 -0.016323076020551393 0.006791588953828208 -0.012934914715456994
1736 -0.0319525390600991 -0.1143374085566279 -0.005181647158701659
5432 -0.048635718795664584 0.12281642062780933 0.06524842982728842
1101 -0.14327395318608277 0.13426095745665442 0.018207419051616845
3161 -0.015723231071155395 -0.01041370286466332 0.07802588165559785
1468 0.07339232555395662 0.08964021547032933 -0.055926596303666296
3241 0.0328019713452855 0.26663534128465494 -0.014792629544729126
1807 -0.09874713839140078 0.06293944743021146 -0.0330792896475995
3840 -0.10224505117922084 -0.21374317320357258 -0.023366018993689605
5147 -0.008244040031012943 0.00867394302636427 0.08613083612418634
3179 -0.07353359585110505 0.1548465084326405 -0.048292250700504996
5655 0.017113023997127635 -0.03175027481489911 0.08970742011172134
5471 -0.04000864157413769 0.1846759088254088 -0.05184747259388126
5718 -0.09557975398541384 0.003096206001523716 -0.04199104618237657
6220 0.11239680811694891 -0.0006065963244187896 -0.10317878250968819
1537 0.06147242543784572 -0.07368108049371411 0.09011282125445372
1424 0.1900910243783865 -0.05437441628310426 -0.06129691997295313
1085 0.08939974660727179 0.03276539422332619 -0.09069365922505682
3183 -0.035891910840059105 -0.015974628338914047 -0.11725749207961582
1758 0.03111910563446655 -0.014543092261472605 0.032122517531588554
2554 0.00495131636554708 0.05663951420999331 0.06853926018368221
2392 -0.03750895414577319 0.004104755512636024 0.03479762670454385
3106 0.0158074789985188 0.04831271856825904 -0.1542478619314914
1774 0.11718953046760323 -0.09784291551363618 0.008449484605948469
2347 0.05208053321470487 -0.016392429449356233 0.0032006701990994427
1036 0.06562036260832216 -0.04850327158510384 0.05731206270971505
5500 -0.034413766996282034 0.06940062347592538 0.019197514923845478
1607 -0.15020609269176155 0.18444461227945463 0.0219353712242681
1721 -0.08337709523706494 -0.09516194731782063 -0.0333815975321205
1671 0.15333673648708393 -0.04366778529979994 0.011580113403884016
1002 0.020465391829402043 -0.006998013371717778 -0.01981959050792188
1644 -0.09998469954757891 -0.04252044857682287 0.07327170154554707
6004 -0.08477878075061245 -0.1392014111304774 0.04229501046487394
5093 0.1110188035711892 4.352618340272736e-05 0.057336525624987
5755 -0.027963658021982245 -0.17715919766859586 -0.11690165144086871
5695 -0.04740777356345494 0.04011159928898192 0.04769024606137107
6106 -0.060723958462464915 -0.06530426652888771 -0.047490739295550324
5087 0.1020140375812748 -0.13547055208234898 -0.0596108245740951
411 -0.0751276372551606 0.09865395020387058 0.15844368287342808
1287 0.05249643388776201 0.00920880195545965 0.11195073560219534
622 0.01448505009414966 -0.06087489827487383 -0.08141979861133242
668 0.005160842048940056 -0.16917310473444125 -0.08261086026788655
902 -0.03325900043579216 -0.04844680681252788 0.13375976650956856
914 0.027325946206962163 0.16450795260707218 0.09615633920493097
787 -0.09876266072478516 0.06406463982086304 0.030626241184518607
2369 -0.11846003722720008 -0.0082087863532413 -0.2173775978325623
1780 0.09764984029806383 -0.028332374100431636 -0.05895887001174055
2368 -0.04757889843167118 0.10700265056948854 -0.10231695504759923
1019 -0.04373342696620099 0.13687660024409873 0.0791449194609121
1596 -0.06757141055970757 0.13317660902044468 -0.1096780533441447
1630 -0.001981904236885927 0.14816717438498292 0.04857817468408061
3247 0.023409637654315963 0.11208144130570127 0.01960667444876952
1702 -0.09590100425576 0.014053023298930182 0.030326152041356694
3073 -0.11502848770092582 0.0037409287783627745 -0.024185110447302413
1071 -0.02705796519529836 -0.11015611909432266 0.06504560257737006
860 -0.11528518158332834 0.0019227618052094254 -0.04374035161121126
4960 -0.08214621503800607 0.028847106410874023 -0.05827435330493435
5989 0.1121508317442659 -0.0705186511626062 -0.10677007316686413
5337 0.006439591263298907 -0.014031202681842216 -0.12678556257380957
5426 -0.004235712685405867 0.004050542580677163 -0.05154808010582723
6155 0.01636481603130822 0.024262317401930675 0.11567915322483104
6161 -0.01921768577923287 -0.07427201507783653 -0.025149909839353904
1769 0.18751171011670495 0.06757340087428333 0.07552370296322364
430 0.024244791829045723 0.11372025042364206 0.03244376029142965
3128 -0.0063109523495337005 0.06751949884385317 -0.029001116708056433
2469 0.08112666925492407 -0.08060328082603192 0.05945646676734692
1710 -0.003571379300406456 -0.1628055041535449 0.09768923637214229
3212 0.11442966378216247 0.13218688100962067 -0.04295922963988147
2223 0.027800205663768927 -0.06899347025922573 0.02475709575097488
994 0.06030346257468054 0.03686006677472939 0.041484613782794805
1568 -0.04613116182714254 0.102562695775338 -0.007872618196176507
3109 0.07043620424420138 0.0962963447043067 0.04861589577166296
4698 0.04959371441287286 -0.11810271519027242 -0.08847507559658709
3049 0.04933671737593459 -0.052080799836933256 -0.006456348812819021
844 0.0020071058466575656 0.08814866884246926 0.18628894028394327
3080 -0.007199147474551524 -0.08300755487914534 -0.031203078987897773
785 0.1743390713231051 0.16969499192677087 0.1501698036083635
1505 0.02184640998311638 0.2636725377871336 0.024196736020203245
4544 -0.06722216775604366 0.0873797954396156 -0.12205297359722513
5146 -0.015252194009463815 0.07425561647978968 0.11382919745455608
1649 -0.12231009537521503 -0.12671616234675356 -0.242978118455564
4649 0.003801995627815715 -0.023412319146605527 0.1516928377297862
6250 0.03517445485469568 -0.03297530561207538 -0.023371039617356686
3515 0.02697882743032266 0.09147492646781812 -0.004217706406876812
5233 0.03316643265960268 -0.06266891446621271 0.04139819442880343
5659 -0.19207656505469067 -0.045687508927805806 0.0906456692238016
710 -0.0134272210159333 -0.04316072976616564 -0.029166782525985584
1224 -0.0029632914422558646 -0.11612268451864535 0.02966780295105155
438 0.10721309255659021 0.09816979331952916 -0.14677524330682687
1615 -0.026036981123852145 0.08060540004365432 -0.16867439113809246
1142 -0.11305421130241418 -0.13774330097134563 -0.1510645975233162
1490 -0.03043793189359486 -0.05458955954484967 0.0704742211366458
741 -0.05366017420471136 0.08590154032868855 0.1370578649302026
809 0.13700591099937526 0.09274036269205348 0.17512799804914458
1028 -0.03905073869660931 0.025080625489974747 -0.018668726562824915
3114 0.05142293790763886 0.008918018617683153 -0.15124987402354756
997 0.08123395250198615 0.042584405959804505 -0.10229801568520032
943 0.13501379336651106 -0.0255950765781814 -0.017453392731981765
1572 -0.04688019650868437 -0.015038009416949466 0.07863898392886963
1621 0.012328034019155748 0.0714892465752697 -0.04535121222231576
5681 0.10353459297473368 0.046359708787690475 -0.029915205937622313
849 0.08836536520785304 0.24876571077107942 -0.030270061077725445
738 0.05198635130063918 -0.011407457359772569 -0.06332607711609492
4949 -0.03368181606190846 -0.04828599363341058 -0.10017029153500792
4942 0.020437800861587054 0.1029451955191249 -0.12161112052784959
5467 0.041989999273640125 0.0022843571380859115 -0.02665384430200294
5425 -0.01509823074961215 -0.12657759679112232 -0.1614518575400973
920 -0.11946035214794776 -0.007325267698758757 0.09203215214361422
1319 -0.09860397804488444 -0.03791270973283812 -0.008653719085898414
950 0.04443200588515559 0.11141249569552583 -0.1356911096493061
681 -0.05026011423431057 0.02251743003360112 0.0752430223539399
473 0.02410995099157688 -0.07648404879394752 -0.15306619651478107
885 0.020705639606095477 0.06039928092544689 0.025167253756811624
877 0.12049103482379943 -0.14803244506213284 0.01652079942866573
1689 0.15979619888474764 0.07903670457793925 0.0450981475883015
4545 0.04534483770509398 -0.02171306043005286 0.036749543115169994
3006 -0.024559439353049942 0.0037463486711195523 -0.10477035368436292
853 0.002780588573519413 -0.05997316321710886 0.01253673786419706
1760 -0.019574660726107803 -0.08207631774797818 -0.1244388845723193
910 0.17352398455015744 0.0503425859387693 -0.07391419540943858
930 0.11400390748532789 0.023748888731988972 -0.03588428126987174
830 0.1503627372760808 0.016855185654530792 -0.16907377223572193
6044 0.04491495704604833 0.02959716274538674 0.039563286718667975
928 -0.12269843327845611 -0.2097336624333743 -0.10457102600330963
6248 -0.04845926986946146 0.08825162815325646 0.024047937864462146
5907 0.08140772285240233 -0.05244411681301894 -0.0005082278948022115
5796 0.04759354882312519 0.06510907939469904 0.07494907709177971
777 0.05699405438723116 -0.07372948753400604 0.02750430014982441
1731 0.11650220216607854 -0.004149420109254308 0.010715883119151781
964 -0.07963558233348021 0.06523714455971175 -0.010534471341977278
1540 -0.11851981837453371 0.15182438436385856 -0.06345412521782386
869 -0.17539099155251722 0.016517511154222744 -0.011370896354881841
1521 0.006628570362067918 0.046671427802753504 -0.016128830087409514
1046 -0.06705010134521432 0.07147741311099395 0.06315281231925995
871 -0.0341049583389728 -0.0918203043126628 0.005804207918327142
755 0.14193010694258515 0.12769024504487245 0.1370367462558546
1038 0.02318113212298449 -0.019224411444652922 -0.0008379555015189111
840 -0.08895279219464543 -0.030585879336947522 0.010539431033394088
857 -0.07593181544603833 -0.0691938323300278 0.17027143038688847
946 0.06569700364776804 -0.06429169027323836 0.12087969424280885
3223 0.12977666226684587 -0.031051137154619865 -0.015095140550951475
1044 0.13196859669016403 -0.017634112195442617 0.05938455926627961
3641 -0.04870386416583113 0.029531081025106112 -0.1061707670234824
5589 -0.057729768369232534 -0.05409472380699589 -0.01696683753647834
5700 0.04494533610577028 0.037688129824749145 0.012127352294198833
6206 0.028361674306058727 0.04586245771576944 0.04224012631235884
1054 0.009589619933405735 0.09373299294909032 0.08708658866219271
5416 0.16180649425740912 0.056260821925843876 0.0854903630479613
5406 -0.07301059739386499 -0.07196199674593165 -0.043144497990554975
5312 -0.14775787211454783 -0.14061621940515737 0.0008221292493156285
5995 0.13070571018702595 0.005340338247811733 -0.33575947162424835
1627 -0.019478757197758434 -0.06473931142522257 -0.02775384085420642
1691 0.032570923028789445 0.16780795349740704 -0.15745025713210598
1063 -0.04740294982841538 -0.0746390075663768 0.05972304890755212
1713 0.1820352147042978 -0.12805635638505855 -0.010032929941279013
1700 0.06102215217776448 0.0053248241929266865 -0.04447746418854593
1793 -0.13977012551250856 -0.037886760816182155 -0.06203375108309951
1698 -0.010186771261169913 0.05266518618801806 -0.052574145130671074
3260 -0.16837787568902132 0.058124711732056245 0.12736804708169347
1590 -0.09459948675007658 -0.22366612256724522 -0.10497182579924116
1076 0.09560458056883016 -0.060323774598727065 0.03190299155636957
780 -0.023485663945970695 0.08184322060857094 0.0498186341164082
5089 -0.07526798907569072 0.23562230179211674 -0.07314998065822614
3523 -0.07537457413278256 0.02272793521488312 -0.057664943566679665
1573 -0.05789937986278151 0.151733756147155 0.06623163032661589
2443 -0.022547877691025127 -0.09003405373581894 -0.034542654782267763
5336 0.029077614462625422 0.07245187093095974 0.004674002258837196
5745 0.09914797671367032 -0.12171134535554942 -0.13026768172721281
5538 -0.04146022900163578 0.0476932536060842 -0.08905697948823961
962 -0.001474119071578163 0.033094431751843276 0.020747893538886363
4105 -0.058177331684553586 0.05485910574267272 -0.1450882337909987
5751 0.22416183270142828 -0.03065797145328804 -0.27340404041107064
5470 0.0823022929231833 -0.022907549481860558 -0.009758881010195133
6251 0.012849010363407038 -0.026463528999038623 0.03327414891856783
1260 0.04652592205711211 0.0698434007978792 -0.2646694399881591
1506 0.07786233969593549 -0.05589263223988143 0.10406874369958614
2412 -0.11712510212030874 0.008449678251064125 -0.11121956161755668
1102 0.18485945878381466 -0.04585696247254409 -0.11046155296422283
1053 -0.049033985320908524 -0.04015647469260072 -0.07577963942153587
2492 -0.008559562051966025 0.02260438438312938 -0.017598282072468562
3224 0.062072387399927514 -0.1497382873104071 -0.09755450238540925
924 -0.010052801308730819 -0.028729374965074495 -0.05339380944789786
867 0.1375833110322238 0.10405416970445028 0.026410959890992777
808 -0.02940984613998529 0.07908071265509728 0.10818834299771571
4374 -0.1130236307152662 0.04439492534496749 -0.016036645394911474
5162 -0.021035141174603096 -0.09245296293997621 -0.04970917240273792
1792 0.06853726320741968 0.0549146831114828 0.04467379134918668
1591 0.0323266605338742 -0.11214125956707988 -0.09230395397294298
3943 -0.016108633845512768 0.20085862961727055 0.016862731312959903
4945 0.013995947612571592 -0.06843518760849865 0.022914620914116404
1513 -0.11262198064308503 0.0868454789343838 -0.024902994186726785
1551 -0.022321628418836833 0.1026955118643568 -0.09243702590250666
1073 0.04053733213093637 -0.11252408535036083 0.07574142871154618
5680 -0.07727231710534815 -0.0699362659784789 0.0021202243912132115
5941 0.14814113044044264 0.009845620878872561 0.05198493311268663
4565 -0.018913280233526987 -0.09022382882955521 0.06848437031804296
1624 -0.1840721017593489 -0.05334141817275995 0.1416324611138227
5887 -0.03413392668701598 0.049461400446854306 -0.06708114875415383
1364 0.017606726215031235 0.027069748744138256 0.07355359030616421
593 0.13567064869869974 -0.1185554437844113 -0.07904904684945949
1745 0.056310999867318294 0.12509631116098943 0.06012884676531629
1021 -0.025586808818056028 -0.0006599993498710172 -0.08595376591655515
620 0.06446155894527608 0.11376890884102984 0.052885600332126824
198 -0.1386195750386856 -0.03523195790427266 -0.3192694490013972
1457 -0.08049020945510604 0.08695931578042973 0.16845762439074954
1476 0.05154659299513222 0.14325294969288177 -0.06919449843243054
1057 -0.24539943320717578 -0.09860799662242269 -0.010489541988360301
1809 -0.0394539171188466 0.20661611469597463 -0.12172346892948448
985 -0.01356861007691347 0.14313381494242902 -0.1448083619425781
1676 -0.08145225775711709 0.14325327172795554 -0.1562521297397856
837 -0.11483795863314297 -0.10559296587011964 0.16140639631129625
874 -0.08238083138204508 0.06218968643015674 0.19497493759442827
1005 -0.08889643933885774 0.13078271636779187 -0.012362924454583434
1008 0.08178714340274117 0.07709543872608102 -0.1775423689655841
5165 -0.03720830494137779 -0.031040459126257088 0.11516315358945876
6006 0.08642589345402173 -0.20165070292369106 -0.0122839927965251
6060 -0.232255508521043 -0.0324296613482492 0.09059233384701602
1668 0.029019639459808136 -0.09531739334953596 -0.01846760947344144
4099 -0.01745961313368328 -0.047969556490457026 -0.07212912552866317
5611 -0.01890035900527935 0.07904466501408766 -0.026574218720375964
648 -0.0712229628979503 -0.004979009536606568 -0.09634410149705197
637 0.09761234865796062 0.005119288784203773 -0.28722079740267886
716 0.1435518270254752 0.004630860918339965 0.02641612690042964
507 0.014962625717769462 -0.08988424718661091 -0.045594381990247984
1272 0.02881732099958244 -0.07302738444913308 -0.007725626712408815
1500 -0.0776949767881477 -0.08927259482101195 0.00885186642104029
1092 0.027774449648471478 0.06394469728763064 -0.022228287003219147
1174 -0.11027421138898394 0.07180980579152653 0.0020290602167331567
1280 -0.07603839845476157 -0.12167810006897235 -0.06791137024562548
1493 -0.05937183687102605 -0.08595546755442088 0.05003462418255004
975 -0.06761837575961946 -0.03589645502140566 -0.04725907518181569
1614 0.011166295916306333 -0.009155263204173278 -0.2183916448414399
1508 -0.04459609950448555 0.038770276074240564 -0.09364006927540514
1548 0.10197692642376746 -0.019482434310611915 0.12342171374658735
1678 -0.0395595501360104 0.04943442133515393 0.04003642581265096
968 -0.0005529519094586224 -0.033888606571371 -0.07492787213231325
1598 -0.02342929730480499 0.06801205227973353 0.0934293242903377
1550 -0.08617869981331154 0.15131672782756936 -0.025342606987972933
1554 -0.1683108291309408 0.11082416749065792 -0.12450067800351197
1571 -0.05570030086739593 -0.045398122338992875 -0.08642238265419733
5934 0.024275173512190003 0.023142285053522837 -0.05593140521690992
973 -0.2462034123754574 0.025508850369776834 0.10414207610943547
847 -0.033969453279443014 -0.03697928173356081 0.03318916318766508
6055 0.03419906859158933 0.11485426397773692 -0.1010606297267062
5292 -0.03786303615918399 -0.09790120817671213 0.06468921315857347
4958 0.08373741364639219 0.02160445815621102 -0.208799161829528
3746 -0.12100276343621863 0.004328945509051663 0.019113879257530664
1601 0.04833433185779923 -0.017763361683263847 0.18383969358825844
730 -0.12612722801287066 -0.012824199390789371 -0.009902013311545502
465 0.2305752507374297 0.035802493453019626 0.003697912033453517
577 -0.02473182174220917 -0.012504369815300703 0.03176822737093468
392 -0.008768899287904792 -0.08958740472933555 0.1286009372198846
838 -0.006770026957863693 -0.039823221533683575 -0.05484918586124447
483 -0.05689677572668196 -0.0548998106294392 -0.025024028903591407
960 0.0876673996060489 0.023182663214544735 0.22040802656650613
1625 0.02019516027155098 0.021655675139364134 -0.11162685292116659
1047 -0.07587874540805369 0.19356140475708378 0.08086847399865517
1009 0.1549598883357779 -0.3032000607690908 0.017444687754251
1752 -0.03799117228254835 -0.08908203923557924 -0.1481898523526256
868 0.13590426628924915 0.1570045805535058 -0.02258501085352413
1816 -0.26560685781017923 0.05367597635585762 0.10620529899593534
1737 0.10006228455007177 0.011688386058729506 -0.07559153455863424
4379 0.11208732864960756 -0.10866101933705796 0.18912950031793713
5530 0.1087237748755126 -0.07312549101120583 -0.1089215149601728
5152 -0.13653059832473413 0.051525757966564244 0.09226175361243377
5049 0.020970540074782183 -0.11157564888738657 0.16935748059670008
5651 -0.053948815440301195 0.06303673748697718 -0.08878154298533139
5468 0.08117948626268541 0.13000746159696422 0.2020185736799679
5230 0.1015189743230438 0.052511484469448186 -0.09106741645891264
6041 0.06040642660556074 0.09680796236093725 0.08288642281976868
855 0.05449721065045776 -0.0780435028835255 0.0022483880436790114
3843 0.0100605307775676 0.17293108440953212 -0.09587446715046831
3865 0.13977611610058863 -0.09601483151045061 0.07750382268819417
1682 -0.03923187822404005 -0.14716119732609004 -0.012007325384119949
995 0.04316869127886656 0.01007644542566859 0.06507860542835875
1310 0.1288061698366901 -0.11351200389854368 -0.021850576519944313
1785 0.10669300563983554 -0.055284914417270924 0.12021052078828093
1690 -0.2249517092352415 0.06784899153749308 0.005237776907109023
1510 -0.0890290767367114 -0.031065050068626372 -0.051366390218897995
1619 -0.10650779313822412 -0.13440554340959368 -0.14703533399527746
1632 -0.06677475664683215 0.058159916572536066 -0.0015551715461344356
1026 -0.1077938916485825 0.06932704179131643 -0.07648629102264881
1492 0.17924505776965427 0.04685707281139577 -0.03789976958281706
1582 -0.04032465910189219 0.17559243393582327 -0.06881226573722354
1623 0.004270616736806839 -0.1529875226856347 -0.0062606878149456075
898 -0.0375673889045295 -0.05800865419733937 -0.07529278130656517
6053 0.09346223869354851 0.06171985618048727 0.003051901128211248
1599 -0.11925834831619013 0.08583462683393346 -0.006553794808135956
1504 -0.025799977337894624 -0.06939668202830192 0.10196582844602911
4240 0.03847365255029247 0.05642464144504749 -0.10252940721664751
894 0.09081645474442994 0.054315359682296865 -0.03808825418406093
5085 0.07809494929795133 -0.06774448458644058 -0.06345864953525317
6140 0.03922039960985636 0.0014744955527360199 0.007934814123837196
3621 -0.07291064403780295 -0.018204089583641985 -0.08832356023379147
988 -0.01682275480547169 0.03712092623107239 -0.021033184645328818
584 -0.006773436362517266 0.10915239569588989 -0.06237406370765578
1454 0.11214350896369256 0.09996412916747281 -0.03336705550774585
572 -0.019823685874243373 -0.06544603230788303 0.03778866674192857
643 0.04699569142433806 0.016510908000190946 0.014715445901728373
1516 0.08266958263306756 -0.13185381014602038 -0.1199769772873041
1050 0.19162995785106396 0.10275019175337609 -0.1323363180326323
1007 0.008563416642526252 -0.10197881479331967 0.008169905570189493
2466 -0.11878675502331551 -0.05659816904919453 0.0024304352083500645
1629 -0.10432252824324084 0.06551471138214529 -0.012448549028035185
991 -0.0343179683774905 -0.16051017368055243 -0.03048648055583194
859 -0.1446453031391717 0.1139393263973648 -0.12486766426108872
1522 0.033263954360425105 -0.0654845720274529 0.09443912301103217
1052 -0.12808692045507286 0.058068179557543065 0.03228181258568341
1812 0.1439756995219191 0.052107651738046594 -0.17063015323506248
1677 0.16142240004231057 0.03424623668585796 0.027582903437450856
1049 0.03513557472815418 0.08479956942724481 0.15276905957836853
1469 -0.034097643324320456 -0.048279887615921634 0.014931738459694227
1564 0.09194076355213586 -0.012509442052112393 0.021534471207328584
4622 0.062233921933342706 0.009829766224685729 0.2358789139490464
1075 0.07236244642159878 0.03601633434481856 0.018859899382671057
3345 -0.13580544930015698 0.052323404475239754 0.05753285340608362
4940 0.04578037470187022 0.04661436966072514 0.058356145879711906
4959 0.07553846372144656 0.11111162641737475 0.11066619592240474
6215 0.03084992038338117 0.12194119979835172 -0.1454909160770173
5399 0.006876773303415181 0.05769530828982278 -0.028631169244315174
5915 0.012436197785516462 0.10479732209218033 0.25874445200451623
6107 0.08307219576476216 -0.17992168685130472 -0.09496931835063613
1794 0.017747094624143825 0.17262275496916912 -0.08200605238960504
6119 0.026314017178825408 0.047078731579458695 -0.0310371658709765
695 -0.01326144805390527 0.021548298046020174 -0.10813827989830208
203 0.11925476626791645 -0.0027844918459119113 -0.22106478809763877
373 0.06199065370490989 -0.0818444002308332 -0.07363387314430207
2 0.02905032105588097 -0.09510692109216999 -0.0643078457079725
454 0.04938267409495543 -0.04406156354636866 0.06830687859965082
205 -0.03194025624977772 0.0035978074621282673 0.22186446944445257
1436 0.07148581666483018 -0.08508985178887457 -0.0223123718959747
1350 -0.09301089249377618 0.030396756484982492 -0.09475284028796033
200 0.0359710253567146 -0.10820455879724944 -0.155466013603121
420 0.2117561640475883 0.13967767580703067 0.16208687605371483
197 -0.13547638698740644 0.004375943000110732 -0.17590713853936524
196 -0.07738721729032529 -0.20885635894911941 -0.004965889269917005
193 0.07690745378339126 0.19887069648761307 0.008340065380715501
194 0.06009456628950012 -0.17355575057263647 -0.08754209741324719
519 0.09754997304177805 0.002293643495474196 0.15150916717122737
162 -0.0651763054198212 -0.04069980122679576 -0.008514804650683322
1474 -0.03484830575770817 0.018907874767820687 -0.11949678218563914
3499 0.03799020739163749 0.05930868876864701 -0.006172515871786536
1250 -0.05281273999898789 -0.04862203521001682 0.003403237958372999
1543 -0.07226979720101899 -0.060864473645282524 0.05717728373998333
880 0.03543470313695101 0.012459251808844038 0.09462605391242393
1065 -0.048330206929248866 -0.004351982111227266 0.01135164249563959
945 -0.03144999268024004 0.02843273656099498 -0.08750302170131724
842 0.01628427083659375 0.006782957203247526 -0.006206080811885433
1077 -0.09387294113125795 0.0787695575785558 -0.012544142979237852
3777 -0.10400426832845294 0.10303588337897669 -0.019380982736257497
4659 0.3093252639322007 0.052437768583964456 0.017744892860903003
4760 0.014168508813945147 -0.036439508893363726 0.03255312109423761
3347 0.014532291301019962 0.017843959605865684 0.057259117103454875
6247 -0.0175801164084566 -0.07351130875829796 -0.13069679947166257
201 -0.08848482194392457 -0.15593740722849123 0.07973215720346824
202 -0.08890169893287793 0.07121899657210072 0.0953958158683722
390 0.10873784301939327 0.17601540955072892 -0.05664898222500314
204 -0.07810089800871275 0.05099033618722864 0.12320441527162415
1 0.030179932191914213 0.07353211183125703 0.23256505416353443
693 -0.072682857782317 -0.21140982349496137 -0.06486116955435517
1137 0.10973554933615035 -0.03704952577882635 0.06553857702025861
199 0.05675200251035871 0.08039546196114868 0.044151952570643395
520 0.18990985280385897 -0.19241495064936148 -0.001857494960837671
1045 -0.05293677886562991 0.1320396943195949 -0.09786438082276055
1831 -0.005766586980244182 -0.13582014334259315 -0.020133568282722673
778 -0.06181273596223663 -0.020526700941219108 -0.0888636396873213
542 0.036601281533823575 -0.06440541950146106 -0.08451092459855333
1566 -0.07359113222775562 -0.037762251034736814 -0.08468176669345397
1583 0.09566865966201729 0.0013832760372472523 -0.0731172775940628
761 0.00459852527085065 0.1536362625287376 -0.04981058558765034
890 -0.1483945004395527 -0.16296489800514732 0.0346334081704219
804 0.08390928159148749 0.03934376684483987 0.15646638810645352
954 -0.030005286225125632 0.034584101676485575 -0.0004711827141906065
5988 -0.25321168299318625 0.021607040557308957 -0.12865814093329897
1494 -0.10464653436573676 0.08013447237872776 -0.07662691227137639
5291 -0.06609510351926756 0.05575462616397848 -0.02007616025241926
772 0.01212818815785699 -0.0652443205097319 0.012586910773886843
5270 -0.011159644602952629 -0.16738452839982712 -0.019121078416845155
5398 0.057768173432085526 -0.0027435950203021017 -0.022010972834562204
876 0.028298060815531094 0.004174189873308842 -0.08534546087136922
5422 -0.050896904946031045 0.042205701982572584 0.15859405882084862
5893 0.21042262033198364 0.032072283360490596 -0.014781957024531871
5750 -0.2543350733453833 0.02050947012346437 -0.08054550232490382
4798 0.028014030015316514 -0.030489555383298797 -0.03940867617021872
528 -0.035944079641848016 -0.09299406089290561 0.09251908197857484
709 -0.1346292316364979 0.024912289893033783 -0.17261927898363394
1798 0.19335734662024356 0.0006017760170388374 -0.05966843649122661
1562 -0.03676697974038799 0.04652709540648045 -0.09277989045931533
5086 -0.02332998267071742 0.09394464349138792 -0.13275571494473412
1637 0.03884534087324118 0.02723180699446944 -0.019566824926064083
1810 -0.001076607415538824 0.21846845068969797 0.13745226812459038
3039 -0.06724347067297136 -0.07795480931984917 -0.09034580681677151
951 -0.025935678858698113 -0.03677353615425971 0.08397084174122613
1017 -0.018945671802681814 0.12490875652694163 -0.13049800879371284
814 0.0066581649756052574 0.03862167380859302 0.013787799396710376
1082 0.10033080978152092 0.023718854280048877 -0.10147485720416943
1097 -0.08719884129385838 0.06450105125984057 -0.12011252681188979
956 0.024399867708215613 0.15710541022849844 -0.10606184222457346
923 0.06712387402998324 -0.05018430681213734 0.1791572289138495
4049 -0.12077024173584971 0.014805664174086812 0.05159166916458228
1724 -0.0037597340494128686 0.09908092572435236 -0.05216911138568728
3533 -0.18574782597777229 0.041185600079266645 0.01098154738606192
5601 -0.035700517052772954 0.09861754711792736 0.054563717775567205
712 -0.09669954053422362 0.1651121713171383 0.02901468899368914
1229 -0.03417195935951857 0.03024779805745631 -0.01773980192719271
1802 -0.1542447399870242 -0.0342374317433851 -0.1299364218949921
1083 0.09721884266974942 -0.1625263655926675 -0.12590345385169185
1688 0.18486287573151186 -0.06762252463895964 0.007498807048839359
810 0.02664307994312411 0.2451806867659328 -0.07265713129029629
979 -0.10068935579779154 0.02130613866235303 0.015007429810192992
764 0.06535303041069945 0.042684545698088265 -0.012665582419682657
866 0.08759802339828986 0.0006165003020652468 0.1967656960405136
1808 0.14611925101335657 -0.03302881479660654 -0.12208648266662998
3412 -0.01758559016402746 0.08623013690572232 0.08488424196957174
2456 0.013583482492982555 -0.10716035612878695 -0.10777009416556615
4969 0.06875671503974871 -0.024765221626525228 -0.05717019367272108
872 -0.015643731759263865 -0.07320095775779818 0.09176694598451798
6189 0.04702521917222439 -0.05050407633862338 -0.08874838475759464
4369 -0.03555135341891438 0.05392401668891424 -0.10956995941236737
1546 -0.03404040833794528 0.03463481816610222 0.125205413935457
6118 0.0008375981796038164 -0.04853866891393052 0.0368853992402452
3405 -0.07956452169921054 -0.041442313515088064 0.029676562462946948
5656 0.07823836936388898 0.11500441336935441 -0.0040262639053572
1397 0.054654629552119395 0.14358776694423384 0.08819323946073825
884 0.04946962645624004 -0.05492076208610093 -0.13199770138557887
1124 -0.12237601219645523 0.010610684980049672 -0.0328213965056027
1486 -0.08304805808671196 0.07938641744678043 -0.0032319036414331336
727 0.04445685970658909 -0.10804796540866571 -0.0064286846635665295
1051 0.022322409845796524 -0.06990626562389309 0.01749207951778812
1788 0.07057663812013844 0.03126377263989267 -0.021555504622986707
1519 -0.06976853357399959 -0.18543139100220085 0.07672378467289781
1712 -0.038143617615221816 -0.049063531584481256 -0.3101039208813861
759 0.17894927461822366 0.017541687856762172 -0.005884272952620236
1066 -0.2137243094206538 0.08585326860756728 -0.09202073084373001
1068 -0.026853499783906696 0.1003276021196105 0.11272485909826407
4863 0.22520753309563996 -0.1125536436983063 -0.10828638809480476
1023 -0.009509192924792206 0.14586284255602674 0.14758002568773476
5328 -0.044368449362358994 0.0028967878933524394 0.006434664780975176
4416 0.044672847096757666 -0.045987764874502735 -0.1439451292761919
4929 0.04350124667481411 0.06224730807369632 -0.02965047248402299
936 0.11721550165187142 -0.017361056824227686 0.08321862207495051
5779 0.07681796846964407 -0.04978434833159494 0.008055882916515255
6001 -0.009671301776370373 0.02644230713500272 0.12534793055267882
6046 -0.14920140634786946 0.019263667213390512 -0.07660943533351859
5825 0.024764493716962967 -0.17479675419564672 0.08955208121536341
4 -0.06941517551291584 0.04203520791062839 0.10066689138626161
208 -0.22398061678760303 -0.07824916932931462 -0.0027742006241254797
206 -0.1160780306336334 -0.027872900936948466 -0.17810381057053207
5 -0.22261142804073433 0.07257424927165114 -0.041873755964027086
207 -0.032423863195642416 0.06651351725998489 0.07476552080319995
209 -0.13727472391008574 -0.09796553213166642 0.07999476616881591
400 -0.05068914017232298 -0.040929113789313444 0.08256270512309445
10 0.010221349686789276 -0.0397354604572481 0.1291282216507933
212 -0.15871151221058724 -0.15805147936323155 -0.10021985830367904
189 -0.01417652248255006 -0.019661892990174564 0.07049806405877783
188 0.1060240994184714 0.11387403566344288 -0.03146188476448909
708 0.03788548318758343 0.17242423086928368 0.15435601291452564
192 0.01578981226736351 0.0790614083908536 -0.0578926564861675
195 0.17111015289352913 -0.010002208614373337 -0.01799890283775285
187 0.019807813487653675 0.024489678111212727 -0.09226300952856539
190 0.02565631084071553 0.10392079577625614 -0.042687850262852434
186 0.20695816824234067 -0.06468697152256521 -0.011774273424590209
156 -0.03618290016796802 -0.0366397704457921 0.023097542092310495
161 0.08806866126902325 -0.1243207432617829 -0.01893215748669929
171 -0.04222007945135111 -0.22999377186540274 -0.013977300604091152
158 -0.13619023518569912 -0.06436676029924648 0.005633058264983319
159 -0.09925723194204937 0.18189211527911545 -0.16484022731625503
766 0.05553136566972891 0.0386355103892391 -0.11808861255494334
1834 -0.1204129851743051 0.05621753853650086 0.008518229150296689
169 0.015358871969473976 -0.09629544488321018 0.05352190719293012
1380 -0.04282566089295025 -0.037809449826258265 0.10260293735875656
1776 -0.002882855186833854 0.06077385769047672 0.1245953451479959
909 -0.14965412163810596 0.10644851602728307 -0.09588277604076428
887 -0.07973714136954531 0.1048821216193547 -0.06416990204232685
1087 0.144010758181774 0.03420537457038163 -0.034438118557163375
4620 -0.010844190366070379 -0.03341014795429383 -0.13190004160445418
3102 0.09428440798748168 -0.0480723556033783 0.10747827027108328
6218 0.06654380137902759 -0.13550597226033345 0.20760502650127255
3866 -0.006470587800922772 -0.11413655696067221 0.00029717922134999547
1069 -0.009209410476501935 0.021994860150607733 -0.15633791738363567
5351 -0.10216441091364736 0.0804006211164293 -0.014221391146597739
5073 -0.03690361492692061 -0.03406382803216996 -0.14496965324298827
4805 -0.07697951385971356 -0.0731546358463273 -0.021544094873568665
396 0.07405751638122045 -0.03310542306626028 0.042220080325133726
241 -0.06403416606915714 0.14724125780026412 -0.19984715056881616
243 0.08475900708356848 0.04484890843915546 0.22150572687440462
6 0.2855719143532604 -0.1796897921399323 -0.10023148155148737
3 0.08707897990444766 0.13910515360692927 0.09836876957813982
244 -0.13701972299996745 -0.14505052823718104 0.0035895116374385066
242 0.07584020164153013 0.22602051703227422 0.2233877533342323
488 -0.04058187203729662 -0.09780219978969476 -0.11352656597942268
238 0.19958966498070588 -0.1334077013951059 0.10935219315944872
2084 -0.06081882490953081 0.002888109844175951 0.0010131922023481404
191 -0.11571533705447357 -0.1919113130123653 -0.07461007527251506
240 -0.22977714678731218 -0.1269481761336178 0.12542550329154079
1932 -0.14482230338365115 0.06420744091442232 0.0037475159616854638
469 -0.05685714266565489 0.09262473520604413 0.0907575764275894
735 -0.14463896998164932 -0.1122263103309746 0.10152005685487112
2351 0.0670586366836686 0.16357566001987417 -0.029967187346585992
5033 0.006628125460711692 -0.032917061980898596 0.14600014537769546
1762 -0.1760684448516608 0.13157222375604122 0.1947472992991392
5151 -0.032177332422452146 0.012684091276896167 -0.015239357058532665
784 0.07033811556767487 0.06623800222872617 0.12639304891996414
5260 0.17188708111952256 -0.007696449337140119 0.1601999131730823
1790 -0.01482677906225416 -0.029409536781811012 -0.03736683124624658
1576 0.006887999492059277 -0.02922151374646251 0.010775735131556934
6021 -0.03194191880004958 0.05202833237515358 0.15570015013365426
1761 0.01964995094652101 -0.043432510419708636 0.14194317953611232
5486 0.11670065646319999 0.05266506777401869 0.08910100723311348
3002 -0.07869266702536454 -0.018239612496430222 0.048974401903599724
724 -0.08767607038568968 -0.060868698119233816 0.16259666678053472
2070 -0.07198976991319905 -0.07323279796098338 0.038111101412739046
2128 0.025716268738978903 0.15981337615938218 -0.04524602788640998
2150 0.0404658020343548 -0.017002619450488574 -0.1588184132896889
2009 0.08729894764760467 -0.09857782134132352 -0.10994086030999947
1256 -0.01670669538089194 -0.06883898606090161 0.06213975047939624
2361 0.07857803858280409 0.0938771064971386 0.039474385399804926
1672 -0.11417726490626691 0.06095026288776244 -0.033386016629317374
2848 0.007247808695914059 -0.017221933147739565 0.06885601767690099
1541 0.023201428291241975 0.07116317567883508 0.07280498601857474
1806 0.015953755932606076 0.03548159626127318 -0.05098158602629736
1013 0.1210096517648131 0.06275524853310735 0.08237004937285043
1680 9.576695225953918e-05 0.04888788385585621 0.0811173185954053
1478 -0.06285869099294852 -0.0627825624158033 -0.0035230027380044084
3071 0.07900368794501549 -0.018236835356631627 0.02076472107218322
3165 -0.09638572166649065 0.1725392853330663 -0.05404484100733028
2429 -0.010229570654425615 0.05704614616967369 0.0210627797742884
5168 0.05902490313897531 -0.02983713022825343 0.1383098643760072
5373 -0.04546893522679765 -0.07581852722671398 -0.04547117532073576
1040 -0.025692007121952635 0.04240202170906257 0.035507050763701295
1729 0.06023200708959278 -0.015188824699917457 -0.05044649929357328
1754 -0.08757628418709232 -0.005283224540489835 -0.03921832326557013
601 -0.017758241234901564 0.03258803154394317 0.007868258022817112
1213 0.18350291153704595 -0.10437384087928966 -0.0685464481488988
496 -0.04319023071374277 0.0552326130335774 0.033398967748976285
1495 0.1154433384890043 -0.01206362695000365 -0.041574473543257176
1759 0.09551305137452962 -0.05692975997761553 -0.0061156586952669685
1876 0.12419793309905448 -0.06143791650517129 0.15590215259956938
1804 -0.11293118040421449 0.046117290551239906 -0.06007210551039611
1602 -0.029717809015022936 -0.023969001977938137 0.015894252632901236
1706 0.013389238970152598 0.104773990428023 -0.10309536263126415
1099 0.0773056235252797 0.13063715377537746 -0.061760319674743096
4994 0.07667866636652618 -0.07176940606346013 0.016566955026776006
3107 0.11908262698391289 -0.07054854269751928 0.06643014051350059
2965 0.08589313170036242 -0.027167879437225102 -0.03205941779972902
801 -0.021173163210230522 -0.07983481214533533 0.10864784411521965
1507 0.08272936922321475 -0.011482422183029427 0.2305491688965348
4724 -0.1213569576247611 -0.04465467803213374 0.11461423763118808
3854 -0.06751931124938436 0.11006235937431703 0.05551473782232542
4222 -0.09573395594048054 -0.054968227850437756 0.03855616536219333
5188 -0.1334678998598443 0.06697843531508639 0.05974281323090251
4483 -0.12896391619749142 -0.043718811829673736 -0.0014450051375070848
4974 -0.09242361304131598 0.03603201799539702 -0.08405375678030762
5092 0.16076849095941206 -0.041218641305758676 0.08519840332740757
5232 0.08639852131981368 0.07835347210694511 0.06112341596959425
3736 0.0010033632461856055 0.047928315425520285 0.039695281624413506
4637 0.05517364639624913 -0.13156129309533107 0.1363646937201875
4050 0.07948174326319714 0.19198627228552362 0.08794446600208151
1704 -0.054714310347178156 -0.16984689629748084 0.03115256661333864
1091 0.039535171620948224 0.09414531726559974 0.22263524427615825
3051 0.02865022859685621 0.05759739346070701 -0.08392257002045057
1182 -0.004464476023313133 -0.0200077588782047 0.06155995344517358
503 -0.07128586630204017 0.0012752864300683352 -0.04650390270913281
1595 0.12429432786253647 -0.062341786605955726 0.07336825777739178
5039 0.03711942527015694 -0.009345865288938804 -0.003060400543843515
1653 -0.03307511197934339 -0.010099318294180822 0.07597836193460779
1081 -0.04358308814094258 0.049839280079500926 -0.004691613932146954
832 0.015055908631761 0.16824202985997402 -0.0626491572399411
2358 -0.044388440740976566 -0.008307851981098676 0.1713257147979337
881 -0.08990817329316389 0.1711511768494557 -0.024510185109346962
4691 -0.09879362728996292 0.13469889730218126 0.09303234644808048
3780 0.031885786503290076 -0.16081739577598722 0.007781809311160959
4243 -0.1637368693965913 0.02612874387729689 0.04694322819655619
1489 -0.02782832463474871 -0.07673044395666781 0.21932067907285702
5816 0.05117830888305892 -0.1233680740917895 0.18122368853266826
6256 0.09174164689601673 -0.07413785161584686 -0.17335729943257772
6005 0.21491751914661011 -0.048908919109414715 -0.10969983258532336
224 0.14673912910018305 0.13593822533173866 -0.1940684018814298
221 -0.08422078349453052 0.16710544124055282 0.020690178278517657
223 0.08663886704912106 -0.132132627729278 -0.0047729411821553465
225 -0.01709534815959887 0.07619545752061528 0.03215108758434011
2056 0.03215114078795703 -0.08600291227298551 0.009645273551200088
222 -0.16190771912079288 0.022133267269448517 0.08524316799194362
655 -0.01809167171439441 0.15921102122467035 0.015483527170217674
2031 0.03255980294037091 -0.10221369094552478 -0.15417909810738317
219 0.024657452533453618 0.018182981542681994 -0.10246343712158933
226 0.09823978284960906 0.136288635782081 0.12673017452587226
228 -0.02395080309946014 0.029916782067074623 0.0045257537879553455
227 -0.02317183617476132 -0.04703070254209493 0.10563000115805823
229 0.054967589938319045 0.07900396982537572 0.07602428071747577
217 0.029197335544649684 0.07031119750683815 0.18839781179946438
232 -0.14100429568835585 -0.10649298108668354 -0.022572931357905723
231 0.016074383466776563 -0.06185261133812686 -0.09008130355460608
2089 -0.11951308408718378 0.031088982887265727 0.07455838475693503
233 0.04806617555150895 0.008972800612231076 0.18886435540700652
235 0.02454132230500928 -0.15700511217060545 0.034666283988416695
179 -0.036020120255098244 -0.08369154742562616 0.1670149807861967
183 -0.06415093777951002 -0.12238604601847679 0.1932701720050816
178 -0.07127150214502584 -0.0810286615983062 -0.019367626525024856
180 -0.20536690839160945 0.02040432835744819 -0.1389448012132166
185 -0.04200080395394162 -0.05957235332580716 0.10355127278810512
2147 0.08891962702473727 -0.17957297671837477 0.15009246577447577
172 0.16271834204183827 -0.0920238882023225 0.11325893752083468
181 0.09476326951009718 -0.19538203234887602 -0.07043137179514988
182 -0.23972069961897038 0.03352065466837811 -0.1388745873413647
184 0.031947605829955886 0.09561394117236005 0.1502605523829645
1893 -0.12497929691800636 -0.07214091433731405 0.03764392488492486
3221 0.020545665707390866 -0.12271271562298869 0.030739197909939592
889 -0.057209136587118015 0.013352750631327319 -0.0232487967198249
1666 0.1368732074715316 -0.01747332339752724 0.06999450839192474
2666 0.11912135075458545 -0.008327652577431243 0.046204570048867806
3233 0.07817264132836463 -0.12144058039525911 -0.007602748761349018
5421 0.04284738206698316 -0.003077268621346615 -0.0247987923349672
1589 0.04526101292326802 0.03870449642335386 -0.20374441054053463
2471 -0.014132110406937645 -0.07258031221156958 -0.03273656055525052
858 -0.011215583891528162 -0.054278031775895075 0.0930354199876254
6059 -0.039193946512161376 0.043745421525580974 0.14967593297850185
3639 0.019213504578185703 -0.1129986173587234 -0.06130796866528688
4487 0.05765435983206283 -0.08805336347906453 0.07361212288393987
4674 0.046681987128087195 0.1399707615442973 0.007979689874400224
818 0.013997343133327029 0.2830830021281714 0.080096304623211
3232 0.11950605455046 -0.04847559417898259 0.18580685723209683
2133 -0.027877187020569703 0.1363331207240006 -0.042510211389180874
234 0.03757438596217239 0.10212557681129061 -0.12464824538734749
237 0.10831411736262124 0.20506203062376885 -0.013097796261370809
2020 0.11935093780301984 -0.001151551452171426 -0.027853274511508617
239 0.07383245846092884 -0.01716183931724774 0.10521724473150924
366 0.08707501176316279 -0.030429205778522102 0.08697770669300932
2057 0.12802258609622297 0.012331190732498347 0.05346747551929213
236 0.009119488999113166 -0.08325679633447884 -0.04160785527584405
230 -0.09064181943370375 0.004182518732701373 -0.017338105694271425
1732 -0.0028755766377936733 -0.03795367758461549 0.0025503750018603666
1934 -0.055385506893291955 0.07022307242764964 0.07056998266353294
1547 -0.14141162596544535 -0.029255931451088395 0.0880702658766198
1042 -0.039603304174598515 0.043993002962653335 0.05424487497159802
2115 0.0357849859889657 -0.003624683397439585 0.005234634426004774
3202 -0.2562067467554118 0.08080816047985057 -0.12110245095698631
2304 0.13703991992906028 -0.0101550463255215 0.0009378534759523632
3077 -0.003819039516218503 0.1903497089438466 0.05703254873126446
2508 -0.15507945697820136 -0.0306539802824948 -0.0434779756174375
5429 -0.039928085942962516 -0.10704001352213546 0.08472249531870284
816 0.009696125800520736 0.10945712171619706 0.06741287322981124
4672 0.04559789598148519 0.15395318605053293 0.017984146655607984
4546 -0.06990259524758763 -0.10658046708483866 0.08446529859547965
5540 -0.012375575065334744 0.02099186796645875 -0.07531480277588419
6219 0.06687478576394623 0.04393018362571099 -0.0837618275201064
4220 -0.10638436513987248 0.03901939250585887 -0.030897753415809012
5748 0.13798887459494708 0.09897060644108502 -0.07983762161462062
6214 -0.0011095654759880698 -0.10783905813559486 -0.09678569010563365
1983 -0.08857677944120473 -0.13120010909931248 -0.02040288986098924
2425 0.04701277033971913 -0.1896253064207532 -0.14368555609924244
2753 0.09040308603230725 -0.13406933535933724 0.06986727463573926
2166 0.19600131856548808 -0.09285863177187215 -0.0032454331365874985
2992 -0.0028225462053841927 0.03221907070503599 0.13001289594728335
1697 -0.09944363881666736 0.10466076383460843 -0.03580935674819836
441 0.025454997351034226 0.18690904467428623 -0.1876942793634611
1787 0.1355016982390682 -0.02591411005703368 0.008145522635579177
836 0.08153796909180609 -0.10158517833085677 0.04937228831469442
2982 -0.0794432198397986 -0.01205439010155697 0.12532722172836608
3082 -0.09095283515696082 0.09075736617514826 0.03541553147196248
2248 -0.09003818247336963 -0.036892789985340506 0.05295337761065761
2339 0.02036472328619522 -0.14174731635634177 0.01986713979526636
3057 -0.054929943435348044 -0.02275996330171681 -0.002942377968131229
2237 0.16335871453028722 0.10434533016941891 0.010070198595258567
3013 -0.03240822470073505 -0.08791312821481681 -0.00896762747255437
3356 0.012912289211866903 -0.014981634671884354 -0.023942551108803136
3776 -0.052645567580635176 0.06094938811401454 -0.021521244267211893
739 0.13833433523247612 0.07241128862762419 -0.058097564293071995
989 0.12566654461674634 0.20054871686642742 -0.06823587771877385
5423 -0.19146463454018514 -0.05874451545742771 -0.21495884910072516
576 0.022077715697563283 0.08796304318690638 0.07429263392080877
1823 -0.0719834180020801 -0.07935521840663853 -0.1432893720934826
1910 0.01467996609765133 0.06288468034819464 0.034985305361825744
569 0.001493631365036243 0.1200577490986827 0.06020194411945798
1936 -0.12884260978054368 0.06588605597590805 0.11787773284920808
1858 0.1519351163463759 -0.1396393291564551 0.15726543945733695
1866 0.3071671054648845 0.03469278587028561 0.04368535021889224
1094 0.047932065896883994 0.04062547636976009 -0.048091277540769
2523 -0.10750586116694623 0.008488863609636008 0.035764276027625025
949 -0.029412552653695304 -0.1866549441005187 0.03489558210239934
2333 -0.022899806770788667 -0.0649221753632971 0.13856204258520008
990 0.027662061929411796 0.010192699786520468 -0.22055938357803587
1663 0.043501502384690846 -0.0002520136698518933 -0.10400874616389973
2474 0.01764784764170224 0.021960506197500246 -0.04478428295653255
2512 -0.04746912095492807 0.03399469655366623 0.04738744677890433
3527 0.06653910040984402 0.007619754712755791 0.14983559810106825
2298 0.0744908933641148 -0.010783297266549384 -0.02611976342996673
4948 -0.11634003168396537 -0.06486957093654708 -0.07067092954916135
5965 -0.011040359505558407 -0.016942028403124056 0.22601495766803997
4163 0.08685173650775072 -0.06492882208223626 0.11795170424801704
6207 0.040725289622602405 0.09625244781596907 -0.0032548693968914855
5789 0.05596606773017414 -0.06281267796544095 0.1807661370975456
5749 0.07003609139516673 0.018622055688771524 -0.05808377341221614
550 -0.05609743450816006 -0.08607210645812555 0.04262993304130298
2957 -0.04787626338908637 0.0669552183026077 0.06506692342133413
1313 -0.08403829204367859 -0.08418049071394793 -0.05373285531703409
2842 0.011926292475387967 -0.0028962158255724825 0.013248853105271435
1332 0.011035070684079181 0.06195034395388445 0.05801431628262046
1740 -0.03621993765660069 0.11731255454712393 0.04974374286479109
2338 0.09278060427522242 0.023407199383299042 -0.09791734596649392
1612 -0.0567862343763931 0.06132054848015977 0.0809321465262159
2359 -0.07364291913046883 -0.11913940302259284 0.012923609052597762
2257 -0.0038451363756047754 -0.07840694458559694 -0.060390382215674804
1669 0.05803008352428839 -0.01518354426147556 -0.05093561175907632
1061 0.18677719007830007 -0.0774093196161063 0.003949093804889444
2979 -0.026552532842695997 -0.04348718988012898 -0.17926168899511521
3135 -0.06615320210504617 0.08154396840877903 -0.13710787482500367
4989 0.10658357012776874 -0.2093923293020185 -0.0716200599309656
1027 0.0870418366568691 0.16065002312072643 -0.0311364278841723
4122 -0.0756243472964464 -0.09126347585716062 -0.0916557334370603
5091 0.07151545192586942 0.019946470013520613 -0.045449992121503996
2353 -0.1767950360494736 -0.06177685750989166 -0.01987488126593418
5359 -0.06487653623346282 0.032632549857799516 0.03995856650163424
2280 -0.18322734423911258 -0.014543526974878266 -0.023027042305952223
5957 -0.06771617632993226 -0.06005414394714991 -0.11572053118911385
4230 0.06776921783869187 0.06077528231862114 0.12315623595448387
5507 0.08393845645359421 -0.004981701739454502 -0.031967012152483376
2068 0.11843260602861147 -0.042799147184079164 -0.02648921295802559
2098 0.04776979618744067 0.012269992366795365 -0.03182055709104245
2189 -0.10325149344936226 -0.18635591197392273 0.19293330745311277
2042 0.035584873413715315 0.03462996588554793 0.081839872745081
218 -0.16893431893147104 -0.07211800437106725 -0.01864719730463522
1888 0.06639653949205897 -0.1366289718283512 -0.01935201285059105
216 -0.07829189708709583 -0.13279702999689924 -0.15267635678268351
2465 0.030200066949086685 -0.15493810192689642 0.21963983550779667
1881 0.028051581451072814 -0.024381518232677125 0.04168086471747674
2903 0.05732653626806639 -0.012289478033208963 -0.28276174307721696
2036 0.0998314144889832 0.03989094209213803 -0.087694390406728
2553 0.04381772980473855 -0.02514389299774481 0.014192392062941834
2251 -0.033501125831296684 0.1749349543852686 -0.01374666064580884
2531 -0.19677057145652438 0.16574225281907762 -0.11029044724700815
2352 -0.04274141694660013 -0.06711773428490697 -0.05180029475849797
2981 -0.024990401639551005 0.15280346560931818 -0.029434700657900336
2243 0.04513412447645283 -0.010058034441905343 0.03415092480036491
2234 0.11927294745374394 0.021345427266801463 -0.03407726254456016
4225 -0.1668974658284726 0.16374570722699508 -0.1548679749776844
2306 -0.09817275267159244 -0.0987026286899068 0.17428382052392147
5588 0.0372399450692936 -0.0190078604529017 0.11419878094144584
3127 0.016467413629955328 -0.026594827949435528 0.02304880372706326
2999 -0.06696933879474573 -0.025833231929092832 -0.12892160533825112
5953 0.053109987955407986 -0.006270614962521914 -0.006219880938763518
4661 0.008493858332366547 -0.12145160999708723 -0.05857357345186735
5720 0.042646268610647284 -0.02675380341582876 0.05499290305315687
3134 -0.013393836381154434 0.044430162814100525 -0.008609788493279482
6024 -0.01091005821095487 -0.07351211914954059 0.060561533582370396
2491 -0.22474194489779206 0.2271520294339139 0.1224343230717038
1856 -0.02882825007197443 0.09251343502909566 0.12475172917851449
2538 -0.045015099667635096 0.1422180467233008 -0.24024530338563516
1870 0.041276208157841485 0.1494869541807803 0.10022444649239869
2503 -0.05590746456784705 0.1975727917691083 -0.10417428250986324
1901 -0.005990702031084767 -0.07643637380594567 -0.09029070984414748
2086 -0.09409205596448211 -0.25414162101350496 -0.12572653588791363
1909 0.24403103594844044 -0.026093799823351707 -0.15767281272484826
2656 0.06914762811051978 0.1525705751251316 0.08716133541474506
2375 0.002138056024918594 0.07846783695804382 -0.04241323736937881
3022 -0.04893846796602805 -0.014795422772637151 0.008053787680377872
2390 0.09577497116128446 0.07326666948810276 0.12400056188210389
2448 0.16924770956368823 -0.14477143646468668 0.044074029441778316
2307 0.062452820293648265 0.020337840142084344 0.002927182093071584
3235 -0.09331684868001351 -0.07191176874638883 -0.05372068105867532
2490 0.15116670381158548 -0.0746623860996842 0.15857680258713241
3146 -0.04744943947397878 0.08596908869601631 -0.0010284309362472016
5354 -0.10011962772815165 0.018555682800701773 -0.1095644077304861
4444 -0.023433093252886665 0.05978831823920385 -0.14468775355453983
5122 0.16556860925175196 0.026783146459586495 0.0009639371286994988
5273 -0.048236685508845224 -0.15271286623523295 -0.00020182300678507105
5966 0.02461038393972121 -0.011696121903959494 -0.19700182479318534
3192 -0.04632047008757803 0.08139930142689598 -0.09158330748304924
6057 -0.011615039081770879 -0.1380841665577107 -0.002670954334415983
4047 0.03952021824625373 0.0009873825178733434 -0.009427127390438427
2102 -0.06360506662025309 -0.043591079337244036 -0.06658656111033442
2757 -0.06228950388196095 -0.024127574891226113 0.0928179664155862
1865 -0.01832933204997781 -0.010115417000101252 -0.14645502164321936
2185 -0.03509460839486578 -0.05724018259071921 0.1287758814086168
2524 -0.006939478953604098 -0.12414692138205528 -0.018370027331425863
3259 -0.04366955408565612 0.15418205870712853 -0.15015895114862762
3170 0.04164033616336941 0.007663215230196037 -0.08868085211719837
2834 0.0651621453923374 0.10841120501454375 0.13843271800338555
2396 0.050754043651176126 0.0037496905156242863 -0.057402349207591796
5255 0.018155822517099518 0.014267894421344525 0.08781439042067948
2449 -0.05027375139674838 -0.12026572754902408 0.07528835781572117
3043 -0.0032668487077357304 0.09919240283687812 -0.003170095511455962
2245 -0.04578834174405106 0.013708854027529152 0.05273738818838358
3668 0.04433176749164354 -0.0358262882688777 -0.002479038224900799
5776 0.007201577945111223 -0.07436417883305851 0.10006836859089396
3535 0.08522260718839522 0.07601026329624164 0.017322903191151776
3112 -0.06266880149232139 0.014273720999520574 -0.06155639407456547
5420 -0.13157846654290548 -0.008009931205884523 -0.054418265095913215
2436 0.028821324162665758 -0.07106712820076165 0.01264221924638212
3518 -0.040279064014951835 0.048223045347814165 0.01199772218135693
5501 -0.14781089741954706 -0.07766824547560998 -0.016316435338930728
1874 0.14982131222901024 0.05541312254521456 0.10356483264142513
1972 -0.00982473592056353 0.013583326095192982 0.05963270403205477
2664 0.02823467048955599 -0.050997756515305546 0.18904778252143925
3206 -0.06442172968857945 0.013714365825828845 -0.04528610921255499
2213 -0.03739513570786958 0.03963582402650963 -0.08932805346664749
2458 -0.011499651588820457 -0.14589762468071313 0.04192194523051373
2315 0.07943692604799513 -0.16078027058811448 0.03380480882020456
3164 -0.06566614288574756 0.029738191494031813 -0.05344555467935506
2299 0.16395145522649174 0.017190341436998647 -0.0009217238271922107
4933 -0.05584136673168765 0.12194562199408704 0.025031882535971193
2947 -0.06446672479232309 0.05092991498634629 -0.05801797149838845
3664 0.04082734520731168 0.016081100709912723 0.050196491046196355
3016 -0.06504154693442998 0.08022726952424494 0.12992331188327336
3747 0.06709326758129155 0.10578082183612479 -0.16210988974600005
2921 -0.14919706639657598 0.11193781077193687 -0.10707924555179696
4979 0.021324671501308602 0.05193981701574438 0.04224484783837804
4161 -0.025128973724826587 0.07224461443163165 0.019198224357039544
2317 -0.12280848558836517 -0.08963251252300243 -0.011704468963478418
3953 -0.08124759909338987 -0.031102457009871298 0.00020438916422528888
4093 -0.07292932288938493 0.11306617051396203 -0.020997144237700223
2494 0.14756499214115693 -0.1274843123502582 -0.01631921898664713
2912 -0.0035556402277426456 -0.1704979015864996 0.12248423466019356
2897 -0.08044175630697294 0.04165685652946033 -0.08655184676167023
2039 -0.10265605835780212 -0.09836484287449423 0.0883183636465885
3211 -0.011447375819531326 -0.09979971778181224 -0.05124200747325284
2820 -0.0008428456920067592 0.1331463572267173 -0.09865144626270272
2013 -0.08650431609448221 -0.03057407525417825 -0.03347152994021819
2240 0.00017596714187806135 -0.003304130514528686 0.12060402497287559
2972 0.12185706830946345 -0.054905525402447655 -0.03144258047982898
3213 -0.016357845262251765 -0.04071695258866381 -0.009145247132357908
2282 0.012535965107500838 -0.08056605376630677 -0.026297105917030397
2326 -0.029347952090100417 -0.08257880974781742 -0.008196175697303293
3126 -0.05814585244201588 0.04195447107127816 0.1373185618066621
4170 0.10825595947742156 0.10617132628255464 0.13546222156379745
3088 -0.1910649385063967 -4.9207418705132094e-05 -0.11705866550360979
3231 0.01862779192380452 0.07933541749132429 0.07066560011238301
2279 -0.015354609231226378 -0.05667289079649197 0.010657424314808529
2485 -0.11376601966871011 -0.06715065585568705 -0.037928146652479566
5752 0.12273301739816189 0.14869664023444176 -0.08533042019744874
3971 0.030193231575140613 0.05287093944910143 0.16692476455189703
5472 -0.0004500584680367462 0.1013488645254019 0.09347572683014507
6253 -0.1885603135972564 0.02523518071839128 0.12926201562005235
3547 -0.06691504454087178 0.018332873408599737 -0.07440670872400292
5271 0.031002055219560953 -0.0760118706173472 -0.042383863129556186
4647 -0.061404329864794875 0.015296496624820211 -0.013230992508516802
2513 0.03403465007756602 -0.0060384772685989005 0.1475995646551233
2337 0.060947021594671094 0.12015407886751694 0.00318342223913666
2131 -0.015786148018481057 -0.05781918639665409 0.04380640385964512
2148 -0.14028096949021587 0.011545696203345642 0.05800465879038534
2544 -0.017073772189183708 -0.017974432034567386 0.0758437591183739
1933 0.002288399103927776 0.01561624528150425 -0.05876947180727016
2932 0.19242736764451587 0.054531415507110235 -0.07528630450633611
2648 -0.11443709487357841 -0.06240057955016209 0.09888190716175659
2714 -0.05524653773771089 -0.041410918025015356 -0.04410221977679931
2059 -0.0926380487855232 -0.04038839532652884 0.0009213568370829654
2462 0.0886144132994306 -0.10288899094580266 -0.022073681599337324
3122 -0.056684584013282774 0.05145342093998008 -0.024435151365271593
1742 0.05576557887022904 0.027083216498284605 -0.1251928551443613
2430 0.053414267979031205 0.16110722404812056 0.05192870622411397
3105 0.05342734241577226 0.12516018601612072 0.10727107365243493
2410 -0.09912199458947478 0.07545817836250535 -0.03920414052774411
2546 -0.07429456121007191 0.024876596621432868 0.10092599156860742
5865 0.032601636453861806 -0.006911262755584665 -0.1540307955764688
2336 0.012100125943915517 0.1435572935626095 0.10538420245315147
6162 -0.010125875235777466 0.013378605198326664 -0.09286727816998674
3377 0.040621675516055916 0.014836319833557373 0.010005733020201916
2246 0.03586398544124003 -0.0686876592448201 -0.1363295615016854
2435 0.04377379363030011 -0.06704154588911487 -0.14121129850521688
2202 0.017955333945548314 -0.0284473674481001 0.005396671052664557
3191 -0.0278105213592379 0.08124545279720316 -0.012937082256951178
2182 -0.06553109480718727 0.012781292296570945 0.008674818547072749
2095 0.0560351199340452 -0.010495396755150885 -0.03358196341585263
3243 0.011273984550144958 -0.03220058532988658 0.034552279596279656
3079 0.037116282623290225 -0.02139448989832067 0.04448776731447766
2413 -0.06877296734771386 -0.026885053026229053 0.029805704122016302
2371 0.016356250313766203 -0.052080652516738074 0.048236182758302035
2330 -0.03897841937860093 -0.00546535975443692 0.07825911402634013
2925 0.02371140551809294 0.15980648771525327 0.014002139622666892
2312 0.22690938572969976 -0.04483209571545321 0.030550467389242768
3031 0.0412439272810748 -0.07053660059932983 -0.06363400226614027
4458 -0.10803422085648867 0.005226191920859146 -0.26989204581224335
3162 0.15258729274919153 -0.11671976336385906 -0.050173939630325196
2388 -0.127812081368105 0.019178943478798553 -0.19321903455306572
3137 -0.2259327801460243 -0.09291447886652891 -0.18605872779503604
2417 0.09749579323014668 -0.0048487247418155036 -0.09884913203508221
5671 0.0846024617160332 -0.016120315400523284 0.04261973425270868
3138 0.08399931315464895 0.04398363325907 0.04368432582862447
4975 -0.04741713816037969 0.09608278790167964 -0.1000807765510899
6223 -0.01584974576297521 0.015354244638687824 -0.22715705182243429
5872 0.18461827927374772 0.04003884179084048 -0.047342396147359855
5480 -0.10920650358619517 -0.003989483812514261 -0.09461172481471719
6211 0.06640462510642124 0.2127986102095985 -0.04517040523933185
3147 0.00023468220803350356 -0.09589262022183483 -0.008093058858870614
3185 0.055404172007237636 0.08125974411105769 -0.21470299125636766
2285 0.17027352720174396 0.06924405871329176 0.02697414631596161
3010 0.10049152315239872 0.00647051342525911 -0.06299418258096606
2382 0.055992484467325486 -0.08552410816498214 0.051164876286292564
2432 0.057044367362509694 -0.020291757832057833 -0.029307823430358794
3257 -0.06086335033477136 -0.0730019711444546 0.1024335305833277
2831 0.17126481898455592 0.11315039957994802 0.15856863138838653
2221 0.07968445819712562 -0.12109514952914074 -0.028720583670764313
3081 0.09749108563083246 0.07215508404579037 -0.06595432247012022
2931 0.09243940630870393 0.04367748766949662 -0.15915703404651715
2387 0.09425826468770784 0.05463309126301387 -0.044344847538425165
4445 0.0626438299628496 0.10730067011780149 0.059488869463791436
3229 0.04410700575728978 0.16280641062868592 -0.11853241084375808
2985 0.03777421526198951 -0.026691498037857746 0.07898614027159964
2231 0.05237146969201221 -0.05903574317449234 0.030558212909804608
4031 -0.05558087763554691 -0.041851630699010545 0.1475205986498883
3240 0.22807907190856652 -0.07294389669854923 -0.007718095641322031
4927 0.09056307206797556 -0.06437888973153767 0.15297435637528256
6144 0.007481494656004825 -0.02894103112836031 -0.029899788250354255
6238 0.08032496233702399 -0.10345513276599072 -0.058531376014454635
5866 0.07570659730661512 0.0043017324480174104 0.0051887730120077635
2032 0.20122883180292236 0.25203804670848856 -0.044857414865333824
2489 0.03631529880717886 0.09826754547125673 0.028941908230307248
2407 -0.059669188609011464 -0.061838741165207295 -0.19971802628983176
3251 -0.034900115008851484 -0.015275957144473634 0.07133342418575964
1407 -0.007860359204285277 -0.15353929569028055 -0.07450225593010575
2233 -0.015490962101893468 -0.10214862985905523 0.007313910550757722
3093 -0.12293067818710333 0.07188227797103953 0.06011569608684389
2481 0.0781320312486066 -0.04546906817314675 -0.04687609439827639
2510 0.1625649600560636 -0.10581515603509094 -0.20490211873652453
3069 -0.252660257165959 0.17773993669391758 0.0650227985251986
3173 -0.016428313983668886 -0.10721965187441751 0.1260776467435386
5198 0.009106377620079733 -0.13784065581564017 -0.07188471285329678
4562 0.013102971856639497 0.07445352201436602 -0.08208883380405717
3620 0.02802272427953905 -0.02947889381376845 0.00907532729017796
5012 -0.2309133264911211 0.08955986832051226 0.01063416165917679
2913 -0.022597033251411925 0.0647246609569893 0.04735051136052987
3622 -0.13299591326836419 -0.07529559798903553 0.01160273028951931
4854 0.0016661868261153723 0.12711737684343472 0.022062201154146848
2378 0.12929640725813163 0.08923324697309143 -0.01642026686417695
2692 0.06288413762186136 0.18885533377315822 0.0641620460700605
2904 0.06127464833539174 -0.016001934628728152 0.0008461678150092824
1949 0.010322314393314755 0.060296022783113024 -0.0368772350868776
2993 0.12658478769412224 -0.064068025254129 -0.05077972916097702
2252 -0.030998194035701202 -0.04222165950869648 0.021339378001044913
2973 -0.14081624574151977 0.06131842656003593 0.10862794115668106
2917 -0.01868909672778049 -0.022673094595384365 0.06132906958257178
3250 -0.07832807774027763 -0.025598149583865304 -0.18285785241370542
2420 -0.0919301627931463 0.0035645951013830966 -0.07251122889737498
2295 -0.010850511786088785 0.10313523949003932 0.07753048167709986
2505 -0.004531137344303516 0.08251392927764713 -0.048222209569745544
4179 -0.13729563058786887 0.11937634646335886 0.11236957014756614
3132 0.19025177356552106 0.15811689152079403 0.19264056959902812
5179 -0.22072297401211255 -0.017650751671190602 0.005514174334390824
2467 0.17386335944281275 -0.04816198420654429 -0.05387635102240687
3234 0.16774528183994672 -0.014059412316991066 0.010435477548345532
3100 0.030859194351845504 0.06529019472532847 -0.1046282485205838
4632 0.05821541949087751 0.14817701246242607 0.16988425392335907
5195 0.10115793456283341 -0.0885772980129591 -0.063939196926249
781 0.10355069355969643 -6.723713699718394e-05 -0.08358668167506556
2376 0.10947429667932493 -0.08029205642390437 -0.11669191207147665
3728 -0.014640483557497593 0.059714385773960044 -0.03956462734816371
2053 0.029618378606315783 0.12621002824462754 -0.00903303396739644
1206 -0.022307208249510387 -0.011219821116219102 0.10125585578174945
1618 0.08156556194801523 0.07314358781865193 -0.030690146831365405
2129 0.11978675423969673 -0.0468747532416644 -0.08911480309368629
2207 0.09937755000971242 0.018376439905668077 0.017176071569940974
1064 0.2229439895841264 -0.2437594685763186 0.05764715316560413
2937 -0.012218615768984928 0.012967910269365168 -0.012693912762362244
2348 0.0821282160381953 0.14251452864878364 0.0939209827108514
3219 0.0023299486529800035 -0.09960729210603293 -0.24519011791267625
2472 0.09129382971923428 -0.026880186237961606 -0.14292203101859074
2459 -0.011422248173029937 0.19411696585607566 0.009823602119035981
2198 0.14503932238924513 -0.2217060936031485 0.03717563849260976
2543 0.114590421105171 -0.12901540544054388 0.007286709833379548
815 -0.023949179093917725 -0.12467512264846736 0.02497657962131408
3085 -0.1282199829317783 -0.07634885027450541 -0.02763138861844512
817 0.04746699077151615 -0.14643842391346568 -0.14413060803800506
5027 0.08374365459464418 0.03909890149705684 -0.18029726604309712
3027 0.09356011172309789 0.08291028012779286 0.015716491727669507
2313 -0.1362220173678694 -0.09750132273245227 -0.06740967734860823
2275 -0.11278723807209723 0.012208455674599973 -0.062383212944992654
2374 0.06155558623178529 -0.01819797592802979 0.11197404729917419
4791 0.052853796427049564 0.03698926892298585 -0.09007376494117791
3623 0.06607004799094422 -0.04513453742037644 -0.027030027986706597
4754 -0.11790613617934273 -0.0025938838408418475 -0.04992508542681148
5826 -0.07541117718942845 -0.04686910135031548 -0.02382126730960349
2976 -0.014266732817649935 0.04179402145080117 -0.19822979647862785
3767 -0.08502760121125345 0.030511837949301852 -0.0018608340397209717
5560 0.10275052873761045 -0.14528733356206514 0.13666671524905652
2986 0.01393271925908078 -0.06967374830565354 -0.011539209731666621
3052 -0.16098476480382784 0.032704657226213164 -0.09203982256803768
2241 0.017181444489579208 -0.06790372289010654 -0.044043963161154276
3054 0.137670834919113 -0.24445417050875243 -0.13515273770060535
2504 -0.03634893816236899 -0.14892854443187645 0.08952342136748596
3201 0.10536842079776727 -0.02691097258469482 0.2685710894692544
2537 0.11889125583726913 -0.02380419465257872 0.2559300541312729
2978 0.16798791021943715 -0.07272224233756647 -0.012427757978598871
5037 -0.0015040323541293654 0.06020380418056668 -0.10095562465640466
3036 0.11043534556880703 0.0440643949172885 -0.10260769786483499
2239 0.08723096759784389 0.09407977235106327 -0.17540371237271232
5180 0.21897495457875613 0.19482669673525133 -0.10663437837758995
3044 0.04915473483823631 -0.08973276198695822 0.03297543581131855
2507 -0.0729367877097349 -0.07733763093043727 0.008549126267971413
3141 -0.1267619284084568 0.0012183457181061952 0.08811830381552287
3781 0.12329136631227516 0.011066106203124567 0.13356495939164148
4480 0.0001950871490987733 0.026200637781232636 0.15567580479968196
5489 0.14967465677198666 -0.08502538427887038 -0.09907259539695619
5682 0.055660081699342015 0.03617344010952336 -0.05282858306370247
2211 -0.013428610252181802 0.046231405491588426 0.14567948483001766
4509 -0.10336459914358767 0.0024826020199399156 -0.12314885740033406
2749 0.059063233172508715 0.03794179782244847 0.05216767259684841
2329 -0.0018903178127831488 -0.06545623132387711 -0.07538727296196841
2381 0.12092281474352168 -0.05434495672808147 -0.09759515795811252
2478 0.10874622493374159 -0.022873588413537177 -0.000942103000910046
2324 -0.06439777508361674 0.05937444929902807 -0.010115873815582746
2104 0.07231510227919995 0.041832902443713765 0.0451487336701924
769 0.014810694416088559 0.022962239055999714 0.019922500467248784
3245 0.02319885589725037 0.009864873387751893 0.1547078728518726
2962 -0.032533116142422165 0.06891932953377894 0.10293538294778358
1072 -0.15197233429146784 -0.17807700934449308 0.05947788821428389
4333 0.22618173725677035 -0.08451005441032164 0.18759827907185586
899 0.07719274243402016 -0.2492446865237761 -0.0075516797556528445
5573 0.05767714577193447 -0.027080375777446812 0.04081739709995577
1055 -0.02229260080133311 0.06289923196439845 0.01292072658204109
4164 0.025801073697059113 0.08366940967162673 0.07473644247414668
1039 0.15387479247763 -0.166788926212168 -0.045946901996619875
4513 0.02379481780150625 0.030495342696346142 0.030619002332006172
6103 -0.027255067747825792 0.19384695136097987 0.08083782742570468
3404 0.13968537827754324 0.009710877772075369 -0.036775406618660696
4019 -0.0507591839042897 -0.04148893785211156 -0.04891499643989626
5095 0.04391052006226059 0.015816350792788224 0.11886684402016238
6040 -0.07638719539716476 -0.036371022231073254 0.10152015516206897
5714 0.016163410937993644 -0.01576766250249879 -0.1101796429186793
2750 0.0018166478432895088 0.09397806221169967 0.06124858585329494
1838 -0.02568847823933774 -0.018578869562685105 0.1081297260790451
2097 0.08696065402832395 -0.06592611079432636 -0.08318820520863424
3096 -0.042003664966309244 0.08641403531614007 -0.019169248952596578
2210 -0.10965664689171312 -0.04228581051824953 -0.03974831894417552
417 -0.12940555810918875 0.012370014034959239 0.05696022728028763
2437 -0.012505277909585793 -0.0881665664877 -0.10014604639747442
3012 0.08394154861056262 0.0103000025098753 -0.03916618446913744
3119 -0.07873834102523641 0.11437878715750108 -0.10455760276691713
2956 0.03081508717074987 0.1086157894288129 -0.08479094613666113
2363 0.09771024687304657 -0.053765015727105556 -0.004643739503558973
3255 -0.23644736004881517 -0.060822749861755024 0.003717766277608994
4540 -0.04285480212995361 -0.05133390304994352 0.04086520256766883
2470 -0.072327950923924 -0.1654805194177945 -0.1110185405022641
2196 0.013981999711832924 0.04669189140957566 -0.04432750620216984
3055 -0.042589693438952136 -0.09366126100274065 0.0464170378766192
6036 -0.18852162797028693 0.03965019549848857 -0.05828493045718448
6141 -0.08294194417363691 0.07740320526427134 -0.04287421498107273
5688 -0.017240830304158673 0.06388868599658044 -0.11216960468445826
5231 -0.051290031643134136 0.09120900721869124 0.06911988008524478
4325 0.07538126466682865 0.06171270111617555 0.04951876335829053
4564 0.03080560282122837 -0.05694499839704245 -0.044664071329463914
3066 0.07591587951814097 0.10243235904250808 0.14854309548139935
2751 0.0528774702804657 0.026728487814640062 0.0071235004768665094
3238 -0.006509224059188176 0.14306541070784864 -0.11066068428050535
3176 -0.0334558052677038 -0.08030614425881137 0.038988297144449596
3047 -0.0966718320522279 -0.10766024283596923 0.06682136041295766
1048 -0.11884029734060628 0.13273751263375766 -0.13440435929074743
3254 0.003721291810301921 -0.0838503799673894 -0.05387124652252151
2942 -0.019037830580569765 0.06471948022133697 -0.04643354755455876
2453 -0.009895481995131475 -0.0846000619677946 -0.04064787305812348
3150 -0.08899576386630781 -0.27750581519721335 -0.0703566117618316
2477 -0.07919165841603198 -0.18916357241498605 -0.010004933898078577
3153 0.057794557237544425 0.017352686013856373 0.14573037283632612
2389 -0.11318883481287854 0.018381659903161283 -0.057454683057821185
3103 -0.04853228583610232 0.2075505930702203 -0.007059530919124117
4980 0.11339288116747329 0.011173157485828639 -0.017561839143896935
2274 0.019108605386429434 -0.04751917081445655 -0.029397585343265566
4734 0.11170975000999284 -0.01927902703756703 -0.02669505920697287
4100 -0.011835067220486642 0.04603039356386931 -0.0760789714099222
5155 -0.03701075795104795 0.05617312338447371 0.15930566645003175
3838 -0.008073564480663733 0.03244522860291044 -0.10215573479681402
5662 0.14412613085206177 0.04868349122415041 0.14948667516809167
1211 -0.1095283965913961 0.019745000229378838 -0.02669570757256695
1592 0.1486537980672748 -0.04510967686440889 -0.03258158713211129
1335 0.09249379299922231 -0.032756682848198417 -0.053056560859647175
776 -0.016612792636235333 0.13462672365505696 -0.12627987226721907
1025 -0.1411219449218238 -0.020900258135923014 0.046122540066748895
961 -0.036533114925432916 -0.00026749715101512597 -0.11696051829278012
3236 -0.06789502308305369 0.12330904916897256 0.04161268444416422
3172 0.021929214071847968 -0.034918994960387445 -0.02320167736338461
3090 -0.0953752502527449 -0.016970655587226803 0.07577447855590966
802 0.1359280607799647 -0.07475354215340849 -0.027503790693361226
3038 -0.04566153116052952 -0.012707330060248948 0.04320968520233152
2518 -0.08810981275211746 -0.13641773742998575 0.13340728199187488
4635 -0.13002575480348932 0.006795805820327936 -0.008118545996312171
2958 -0.15711868909448745 0.004707112760696696 -0.0795782166587099
5170 0.05642867395812632 0.049759948840965434 -0.12095383735085051
3964 -0.052128288013181166 -0.09955289437408693 -0.09922801158441172
4415 -0.21705130208700738 -0.10779066368986116 -0.06450216457794082
3939 -0.004494408609534238 0.034603998373794805 -0.07896879883153313
4792 0.10747275936222936 -0.08691042003665074 -0.08946313875558717
4638 0.01408274712623317 -0.0823219198818821 0.07469456805058801
5998 -0.09681503595819543 0.12313045298193234 0.13633932500466425
5433 -0.059500793765381206 0.08239753084144308 0.13188850338355876
2927 0.11976314606125807 0.033119284909295 0.09687021678069643
2680 -0.04094113985133517 0.01258851824514175 -0.09504797795458811
2266 -0.04903416480202881 0.013917472109336759 0.0751003290192354
2552 0.04640993579828023 0.03335984368525778 -0.07556099394154042
2919 0.2014531684351543 -0.021573442095855086 -0.07211531200938907
3214 0.14155986777349686 0.002725510766883996 -0.004137667515465182
2278 -0.043236392930161294 -0.10801275981931051 0.18813068267563843
2342 0.056206465210121355 0.05519134027060453 0.04976683751357573
2923 -0.09855578624328416 -0.1606888674484492 0.09533117052814549
2439 -0.05964348130743932 -0.06259574982524585 0.023962059355185195
3248 -0.16947892336589368 -0.11019684189094131 0.013964498013659836
5201 0.1401927143281093 -0.08419323141621594 -0.07922525835785707
2935 -0.17686824316391553 -0.04303928802354519 -0.12742991348139365
3842 0.06307491423813448 0.1264002461671144 -0.18705768557701855
5298 -0.06557386394315803 -0.104419793115601 0.008029913583141209
3189 -0.07917329219668878 0.10510620202181728 0.053226101097864215
2291 -0.08219517009907838 -0.00046087475645408514 -0.06103771541372938
4186 -0.001309019162144721 -0.13879354692848112 -0.02783282189094838
5928 -0.029318752688475384 -0.062220553634058214 0.04459499979308498
3744 -0.1132493398005176 -0.009852266111375699 -0.1218570722061359
5955 0.0025165299513879094 -0.03285119724321771 0.014349597356771753
6126 -0.04476414246052858 -0.04065258489720324 0.1713290342651937
2495 0.10000523743579068 -0.006392649572264834 0.10237902931849316
1636 0.10003816587278105 -0.08475592847483886 -0.08795927855002583
1526 0.08737053418770557 0.0942539956713407 0.09882137688512756
635 0.04324245627062876 0.15811027979212908 -0.01821544304540683
2580 -0.045532803555560136 -0.06811606611664353 0.14748382164690266
2484 0.06602446977073104 -0.0071847886002157114 0.0020130039781550927
3204 0.018806015834486246 -0.06055867136991671 -0.080104461243584
2297 -0.03518964021245437 -0.01975017777374559 0.04751315294891562
2220 -0.10345792755966432 -0.018895406941001117 -0.08279545237429076
897 -0.007550809269873617 0.026794525253071976 0.04729059518533387
3252 0.07366126372240413 0.002845371398017172 0.14647428397531048
2547 0.07836178913429717 -0.019294682561096076 0.10304924651813431
5072 0.028133888239907916 -0.08450913773284477 -0.008885098862569142
1722 8.381187935195371e-05 -0.13495331127548543 0.011193104890559292
2272 -0.11766980399102328 0.2195821630171087 0.12563405414865494
1480 0.032640569064244895 0.01871833626670101 -0.016143170076531658
4297 -0.019928957741749832 0.053449354144214076 0.03412623628833191
5654 -0.08351561012354375 0.009512824179937757 0.008425209370299959
5015 0.20622978896962713 -0.05242124265761218 -0.0910730812515792
2988 0.04869554948249178 -0.04404291299130374 -0.03219088643434003
3391 -0.0014066172456952564 0.04899326382147791 -0.047206942193259195
2542 -0.010638945949713461 -0.041055990854764954 -0.07101818782883099
5238 -0.1617780179744993 -0.07262747229074569 0.037372097946434375
6125 -0.21141860122151399 -0.10633713160905689 -0.006040791706044877
5243 0.32026145351898966 -0.054500205642005584 -0.1215849889039193
1903 -0.10404037119129607 -0.03728016697653457 0.04445037389809692
3154 -0.03764210486286499 -0.11243680403312718 -0.13836695951733927
463 0.004427338389368945 -0.14747896103265956 0.017668244463452377
559 -0.014452697709546993 -0.08497883420710878 0.04706002229320066
2940 -0.0103851361223369 0.054650793632308355 0.1131830297751775
969 -0.08929281359956365 -0.16672531891398526 -0.0008296362753896858
2225 0.02894108254059053 0.0014418726463225479 0.18433225236184997
2258 -0.04129909793557463 0.06993253793220815 0.10166898512582137
3140 -0.11106507032769383 0.0036459064097090314 -0.12416405033454218
3151 -0.10564697163439829 0.09338676301396152 -0.09817939883875282
2206 -0.11066742505671312 0.09000989491104354 -0.08288280050962799
2541 0.053393145023764854 -0.058778786220831145 0.03818164145127857
3226 -0.05834899565580783 -0.0038875250350040853 -0.03570874879333284
5222 0.13398805483500578 0.06238316249108989 -0.12978079891573113
2341 -0.00467040809001104 0.03252035082478149 0.06387277038168226
6213 0.09282975432513473 -0.06686944417847103 0.0005779360588786054
1567 0.06238557266000433 -0.10233262215020521 0.06331506059679144
6114 0.2226164899784548 0.07269123129753906 -0.012741103395866805
5969 -0.10356444721577736 0.18874559374769612 0.0832607665899352
5723 0.04370439880341308 0.053325867233137945 -0.10029764554840503
5493 0.08368691413486824 0.11190661017895429 0.010213789632281915
1391 0.08221161581151468 -0.0165322000792149 0.026817379489319275
1109 -0.1813983639754952 0.05716606466258706 -0.1718962253216299
2661 0.09324787394255447 0.04177453130597737 0.021537465847618405
610 0.06399455402028978 -0.05926196560992139 -0.07967122690487534
2281 0.09290216363473615 -0.06773824163289145 0.09594943338284202
2289 -0.00691874096311533 -0.03538839492497689 -0.08223070289274487
2335 -0.009538220397405917 0.1960064040194079 0.04485472013794514
3028 -0.11254829393710875 0.0043533870188334385 -0.019024702884212603
3087 -0.02652155114448107 -0.04835768401315431 0.06421537650827763
2409 -0.06328829390273494 -0.05485736223966704 0.06330785363837443
1757 0.04756822240009009 0.03909411884052329 0.025196569523685
3957 -0.15719643557058544 0.1500181883825673 0.00901677309058124
5090 0.03375583187219944 -0.01379385554064989 0.02519547464905164
3875 -0.06821336823156475 0.04156601316586021 0.02299513847961341
4372 0.04061931920564325 0.06265881505661632 0.12242689774999493
5502 -0.003206175555858271 0.11726718658800636 0.047620285315279044
4867 0.0008549480327915415 0.052975277774866825 -0.06295660409815154
5692 -0.05775284680814762 0.00334380986925285 0.07006519221497645
937 0.11137159080313147 0.1310403335134438 0.07235783650776585
5529 -0.06821676589173982 -0.04805916305916015 -0.042801962650080634
6051 0.030093047156677794 0.1594742891760055 -0.10650424591017921

Bonds

1 1 79 81
2 208 79 85
3 209 79 87
4 210 79 207
5 582 79 80
6 598 70 71
7 598 70 72
8 1 83 85
9 218 83 90
10 219 83 92
11 220 83 128
12 221 83 130
13 222 83 131
14 223 83 134
15 577 83 84
16 1 73 76
17 205 73 81
18 206 73 83
19 579 73 74
20 1 76 79
21 207 76 83
22 579 76 77
23 586 74 75
24 1 81 83
25 211 81 87
26 212 81 90
27 213 81 92
28 214 81 130
29 215 81 131
30 216 81 207
31 217 81 209
32 600 81 82
33 1 329 331
34 569 329 335
35 570 329 337
36 571 329 339
37 578 329 330
38 1 331 333
39 572 331 337
40 591 331 332
41 1 55 57
42 184 55 61
43 185 55 63
44 186 55 69
45 187 55 333
46 188 55 335
47 591 55 56
48 1 327 329
49 563 327 333
50 564 327 335
51 565 327 337
52 566 327 339
53 567 327 343
54 568 327 345
55 591 327 328
56 1 325 327
57 558 325 335
58 559 325 337
59 560 325 339
60 561 325 343
61 562 325 345
62 578 325 326
63 1 53 55
64 179 53 59
65 180 53 61
66 181 53 63
67 182 53 333
68 183 53 335
69 583 53 54
70 593 64 65
71 596 64 67
72 1 59 61
73 193 59 69
74 194 59 73
75 195 59 76
76 577 59 60
77 1 61 63
78 196 61 73
79 197 61 76
80 198 61 79
81 591 61 62
82 1 63 69
83 199 63 76
84 200 63 79
85 201 63 81
86 584 63 64
87 1 57 59
88 189 57 63
89 190 57 69
90 191 57 73
91 192 57 257
92 578 57 58
93 1 69 73
94 202 69 79
95 203 69 81
96 204 69 83
97 585 69 70
98 599 71 72
99 1 335 337
100 574 335 343
101 582 335 336
102 1 333 335
103 573 333 339
104 581 333 334
105 594 45 48
106 597 45 47
107 1 37 39
108 159 37 43
109 160 37 102
110 161 37 106
111 162 37 116
112 591 37 38
113 1 35 37
114 155 35 102
115 156 35 106
116 157 35 114
117 158 35 116
118 582 35 36
119 1 337 339
120 576 337 338
121 1 339 343
122 587 339 340
123 602 346 347
124 602 346 348
125 1 343 345
126 576 343 344
127 601 340 341
128 602 340 342
129 603 348 349
130 603 347 349
131 602 347 348
132 1 345 350
133 589 345 346
134 1 51 53
135 172 51 57
136 173 51 59
137 174 51 61
138 175 51 333
139 176 51 335
140 177 51 337
141 178 51 339
142 577 51 52
143 1 43 49
144 165 43 337
145 584 43 44
146 1 49 51
147 166 49 55
148 167 49 57
149 168 49 333
150 169 49 335
151 170 49 337
152 171 49 339
153 582 49 50
154 591 341 342
155 1 261 263
156 502 261 267
157 503 261 337
158 504 261 339
159 505 261 343
160 506 261 345
161 507 261 350
162 578 261 262
163 1 259 261
164 497 259 265
165 498 259 339
166 499 259 343
167 500 259 345
168 501 259 350
169 590 259 260
170 1 17 19
171 86 17 23
172 87 17 26
173 88 17 28
174 89 17 257
175 90 17 259
176 91 17 261
177 92 17 263
178 93 17 265
179 94 17 267
180 95 17 269
181 96 17 280
182 591 17 18
183 603 252 254
184 602 252 253
185 1 15 17
186 75 15 21
187 76 15 23
188 77 15 26
189 78 15 28
190 79 15 255
191 80 15 257
192 81 15 259
193 82 15 261
194 83 15 263
195 84 15 280
196 85 15 350
197 577 15 16
198 1 13 15
199 68 13 23
200 69 13 26
201 70 13 28
202 71 13 250
203 72 13 255
204 73 13 257
205 74 13 259
206 591 13 14
207 1 41 43
208 164 41 267
209 583 41 42
210 1 39 41
211 163 39 49
212 575 39 40
213 1 33 35
214 152 33 39
215 153 33 271
216 154 33 272
217 581 33 34
218 1 31 33
219 146 31 37
220 147 31 39
221 148 31 269
222 149 31 271
223 150 31 272
224 151 31 274
225 575 31 32
226 593 44 45
227 596 44 47
228 1 265 267
229 581 265 266
230 1 263 265
231 508 263 339
232 509 263 343
233 591 263 264
234 595 47 48
235 1 269 271
236 510 269 274
237 581 269 270
238 1 267 269
239 592 267 268
240 1 28 30
241 125 28 37
242 126 28 39
243 127 28 214
244 128 28 215
245 129 28 267
246 130 28 269
247 131 28 271
248 132 28 272
249 133 28 274
250 134 28 276
251 135 28 280
252 590 28 29
253 1 30 31
254 136 30 35
255 137 30 37
256 138 30 39
257 139 30 214
258 140 30 215
259 141 30 269
260 142 30 271
261 143 30 272
262 144 30 274
263 145 30 276
264 591 278 279
265 601 277 278
266 602 277 279
267 1 271 272
268 354 271 276
269 1 274 276
270 600 274 275
271 1 26 28
272 116 26 259
273 117 26 263
274 118 26 267
275 119 26 269
276 120 26 271
277 121 26 272
278 122 26 274
279 123 26 276
280 124 26 280
281 592 26 27
282 1 272 274
283 578 272 273
284 580 77 78
285 553 321 325
286 554 321 343
287 555 321 345
288 556 321 350
289 557 321 352
290 585 321 322
291 599 354 355
292 598 322 323
293 598 322 324
294 598 353 354
295 598 353 355
296 1 319 321
297 548 319 345
298 549 319 350
299 550 319 352
300 551 319 356
301 552 319 358
302 581 319 320
303 598 314 315
304 598 314 316
305 595 67 68
306 1 352 356
307 585 352 353
308 1 356 358
309 581 356 357
310 594 65 68
311 597 65 67
312 1 317 319
313 544 317 350
314 545 317 352
315 546 317 356
316 547 317 358
317 576 317 318
318 1 7 9
319 35 7 205
320 36 7 207
321 37 7 209
322 38 7 211
323 39 7 221
324 40 7 230
325 41 7 234
326 42 7 241
327 43 7 243
328 44 7 245
329 45 7 248
330 46 7 250
331 47 7 255
332 48 7 360
333 577 7 8
334 603 253 254
335 586 246 247
336 1 9 11
337 49 9 69
338 50 9 207
339 51 9 209
340 52 9 211
341 53 9 213
342 54 9 214
343 55 9 221
344 56 9 245
345 57 9 248
346 58 9 250
347 59 9 255
348 60 9 257
349 590 9 10
350 1 309 311
351 531 309 317
352 532 309 356
353 533 309 358
354 534 309 360
355 535 309 362
356 576 309 310
357 599 315 316
358 1 358 360
359 590 358 359
360 1 311 313
361 536 311 356
362 537 311 358
363 538 311 360
364 539 311 362
365 592 311 312
366 1 313 317
367 540 313 352
368 541 313 356
369 542 313 358
370 543 313 360
371 585 313 314
372 1 307 309
373 525 307 313
374 526 307 358
375 527 307 360
376 528 307 362
377 529 307 364
378 530 307 367
379 581 307 308
380 580 365 366
381 1 245 248
382 470 245 358
383 471 245 360
384 472 245 362
385 473 245 364
386 579 245 246
387 1 248 250
388 474 248 307
389 475 248 313
390 476 248 356
391 477 248 358
392 478 248 360
393 479 248 362
394 480 248 364
395 577 248 249
396 1 360 362
397 577 360 361
398 1 362 364
399 581 362 363
400 1 364 367
401 579 364 365
402 599 323 324
403 492 257 259
404 493 257 345
405 494 257 350
406 495 257 352
407 496 257 356
408 600 257 258
409 1 255 257
410 485 255 313
411 486 255 319
412 487 255 350
413 488 255 352
414 489 255 356
415 490 255 358
416 491 255 360
417 577 255 256
418 1 350 352
419 588 350 351
420 603 291 292
421 1 11 13
422 61 11 28
423 62 11 211
424 63 11 248
425 64 11 250
426 65 11 255
427 66 11 257
428 67 11 356
429 591 11 12
430 602 251 252
431 602 251 253
432 599 282 283
433 1 250 255
434 481 250 352
435 482 250 356
436 483 250 358
437 484 250 360
438 589 250 251
439 1 295 297
440 515 295 301
441 516 295 307
442 583 295 296
443 595 305 306
444 602 289 290
445 602 289 291
446 603 290 292
447 602 290 291
448 1 288 293
449 512 288 297
450 589 288 289
451 1 293 295
452 513 293 299
453 514 293 301
454 581 293 294
455 1 286 288
456 578 286 287
457 1 301 307
458 521 301 360
459 522 301 362
460 523 301 364
461 524 301 367
462 584 301 302
463 593 302 303
464 596 302 305
465 1 299 301
466 119 299 362
467 519 299 364
468 520 299 367
469 578 299 300
470 594 303 306
471 597 303 305
472 1 297 299
473 517 297 307
474 518 297 367
475 578 297 298
476 579 367 368
477 580 368 369
478 1 19 21
479 97 19 26
480 98 19 28
481 99 19 259
482 100 19 261
483 101 19 263
484 102 19 265
485 103 19 267
486 104 19 269
487 592 19 20
488 1 21 23
489 105 21 28
490 106 21 267
491 107 21 274
492 108 21 276
493 109 21 280
494 578 21 22
495 1 284 286
496 583 284 285
497 598 281 282
498 598 281 283
499 580 24 25
500 1 23 26
501 110 23 30
502 111 23 271
503 112 23 274
504 113 23 276
505 114 23 280
506 115 23 284
507 579 23 24
508 1 280 284
509 585 280 281
510 1 276 280
511 511 276 286
512 587 276 277
513 1 124 126
514 328 124 131
515 329 124 137
516 583 124 125
517 1 126 128
518 330 126 131
519 331 126 134
520 332 126 137
521 577 126 127
522 1 128 130
523 333 128 134
524 583 128 129
525 1 130 131
526 1 131 134
527 334 131 139
528 579 131 132
529 580 132 133
530 1 85 87
531 224 85 92
532 225 85 128
533 226 85 130
534 227 85 131
535 228 85 134
536 578 85 86
537 586 88 89
538 1 90 92
539 237 90 130
540 238 90 131
541 239 90 134
542 240 90 137
543 241 90 139
544 242 90 192
545 243 90 194
546 244 90 196
547 245 90 203
548 246 90 205
549 247 90 207
550 248 90 209
551 583 90 91
552 1 87 90
553 229 87 128
554 230 87 130
555 231 87 131
556 232 87 134
557 233 87 137
558 234 87 203
559 235 87 205
560 236 87 207
561 579 87 88
562 1 134 137
563 335 134 163
564 336 134 165
565 579 134 135
566 1 137 139
567 337 137 160
568 338 137 163
569 339 137 165
570 340 137 167
571 582 137 138
572 586 135 136
573 1 160 163
574 579 160 161
575 1 163 165
576 592 163 164
577 1 121 124
578 579 121 122
579 1 120 121
580 327 120 126
581 1 118 120
582 326 118 124
583 590 118 119
584 580 122 123
585 594 110 113
586 597 110 112
587 1 211 213
588 425 211 219
589 426 211 221
590 590 211 212
591 1 94 96
592 259 94 134
593 260 94 137
594 261 94 139
595 262 94 141
596 263 94 143
597 264 94 186
598 265 94 205
599 266 94 207
600 267 94 209
601 268 94 211
602 269 94 213
603 270 94 214
604 590 94 95
605 1 92 94
606 249 92 131
607 250 92 134
608 251 92 137
609 252 92 139
610 253 92 141
611 254 92 194
612 255 92 205
613 256 92 207
614 257 92 209
615 258 92 211
616 592 92 93
617 1 96 98
618 271 96 102
619 272 96 106
620 273 96 108
621 274 96 137
622 275 96 139
623 276 96 141
624 277 96 143
625 278 96 145
626 279 96 165
627 280 96 173
628 281 96 207
629 282 96 209
630 283 96 211
631 284 96 213
632 285 96 214
633 286 96 219
634 575 96 97
635 1 141 143
636 347 141 163
637 348 141 165
638 349 141 167
639 350 141 173
640 351 141 175
641 352 141 186
642 590 141 142
643 1 139 141
644 341 139 163
645 342 139 165
646 343 139 167
647 344 139 173
648 345 139 186
649 346 139 192
650 590 139 140
651 1 165 167
652 600 165 166
653 593 168 169
654 596 168 171
655 1 154 156
656 379 154 160
657 380 154 163
658 600 154 155
659 1 167 173
660 385 167 178
661 386 167 184
662 387 167 186
663 584 167 168
664 1 116 118
665 325 116 121
666 576 116 117
667 1 114 116
668 323 114 120
669 324 114 121
670 581 114 115
671 593 109 110
672 596 109 112
673 1 106 108
674 313 106 116
675 314 106 118
676 315 106 120
677 316 106 211
678 317 106 213
679 318 106 214
680 600 106 107
681 1 102 106
682 307 102 114
683 308 102 116
684 309 102 118
685 310 102 143
686 311 102 213
687 312 102 214
688 587 102 103
689 1 108 114
690 319 108 118
691 320 108 120
692 321 108 121
693 210 108 124
694 322 108 213
695 584 108 109
696 580 100 101
697 601 103 104
698 602 103 105
699 1 99 102
700 299 99 108
701 300 99 114
702 301 99 116
703 302 99 141
704 303 99 143
705 304 99 145
706 305 99 213
707 306 99 214
708 579 99 100
709 591 104 105
710 1 149 151
711 372 149 167
712 373 149 173
713 374 149 175
714 581 149 150
715 595 112 113
716 1 213 214
717 427 213 216
718 428 213 219
719 429 213 221
720 1 214 215
721 430 214 219
722 431 214 221
723 432 214 226
724 1 98 99
725 287 98 106
726 288 98 108
727 289 98 114
728 290 98 139
729 291 98 141
730 292 98 143
731 293 98 145
732 294 98 211
733 295 98 213
734 296 98 214
735 297 98 216
736 298 98 219
737 1 143 145
738 353 143 149
739 354 143 165
740 355 143 167
741 356 143 173
742 357 143 175
743 358 143 178
744 359 143 213
745 577 143 144
746 1 145 147
747 360 145 151
748 361 145 153
749 362 145 165
750 363 145 167
751 364 145 173
752 365 145 175
753 366 145 178
754 576 145 146
755 1 147 149
756 367 147 153
757 368 147 167
758 369 147 173
759 370 147 175
760 371 147 178
761 576 147 148
762 1 151 153
763 375 151 156
764 376 151 167
765 583 151 152
766 586 176 177
767 1 175 178
768 391 175 182
769 392 175 184
770 393 175 186
771 579 175 176
772 1 153 154
773 377 153 158
774 378 153 167
775 1 173 175
776 388 173 180
777 389 173 184
778 390 173 186
779 592 173 174
780 1 215 216
781 433 215 221
782 434 215 226
783 435 215 228
784 436 215 274
785 437 215 276
786 438 215 280
787 1 203 205
788 581 203 204
789 1 205 207
790 419 205 245
791 590 205 206
792 1 197 199
793 417 197 203
794 578 197 198
795 1 196 197
796 415 196 201
797 416 196 203
798 1 194 196
799 412 194 199
800 413 194 203
801 414 194 205
802 588 194 195
803 1 201 203
804 583 201 202
805 1 1 3
806 2 1 199
807 3 1 201
808 4 1 203
809 5 1 205
810 6 1 207
811 7 1 238
812 8 1 241
813 9 1 243
814 10 1 245
815 575 1 2
816 1 199 201
817 418 199 205
818 592 199 200
819 1 5 7
820 22 5 203
821 23 5 205
822 24 5 207
823 25 5 209
824 26 5 211
825 27 5 230
826 28 5 234
827 29 5 238
828 30 5 241
829 31 5 243
830 32 5 245
831 33 5 248
832 34 5 250
833 576 5 6
834 1 207 209
835 420 207 213
836 575 207 208
837 1 209 211
838 421 209 214
839 422 209 219
840 423 209 221
841 424 209 230
842 592 209 210
843 1 188 190
844 409 188 194
845 410 188 196
846 590 188 189
847 1 192 194
848 591 192 193
849 1 190 192
850 411 190 196
851 591 190 191
852 1 186 188
853 407 186 192
854 408 186 194
855 591 186 187
856 1 156 158
857 381 156 163
858 382 156 165
859 383 156 167
860 578 156 157
861 580 161 162
862 595 171 172
863 1 158 160
864 384 158 165
865 578 158 159
866 594 169 172
867 597 169 171
868 1 241 243
869 463 241 248
870 464 241 362
871 465 241 364
872 591 241 242
873 1 243 245
874 466 243 360
875 467 243 362
876 468 243 364
877 469 243 367
878 581 243 244
879 1 3 5
880 11 3 201
881 12 3 203
882 13 3 205
883 14 3 207
884 15 3 209
885 16 3 230
886 17 3 234
887 18 3 238
888 19 3 241
889 20 3 243
890 21 3 245
891 590 3 4
892 1 238 241
893 462 238 245
894 579 238 239
895 603 224 225
896 1 221 226
897 446 221 230
898 447 221 234
899 448 221 280
900 449 221 284
901 589 221 222
902 603 223 225
903 602 223 224
904 602 222 223
905 602 222 224
906 1 219 221
907 443 219 228
908 444 219 230
909 445 219 234
910 592 219 220
911 1 226 228
912 450 226 234
913 451 226 236
914 452 226 280
915 453 226 284
916 581 226 227
917 1 228 230
918 454 228 236
919 455 228 238
920 581 228 229
921 580 217 218
922 599 232 233
923 598 231 232
924 598 231 233
925 1 178 180
926 394 178 184
927 395 178 186
928 396 178 188
929 576 178 179
930 1 180 182
931 397 180 186
932 398 180 188
933 399 180 190
934 400 180 228
935 592 180 181
936 1 182 184
937 401 182 188
938 402 182 190
939 403 182 192
940 578 182 183
941 1 184 186
942 404 184 190
943 405 184 192
944 406 184 194
945 581 184 185
946 1 234 236
947 458 234 241
948 459 234 243
949 460 234 245
950 577 234 235
951 586 239 240
952 1 236 238
953 461 236 243
954 583 236 237
955 1 230 234
956 456 230 238
957 457 230 241
958 585 230 231
959 1 216 219
960 439 216 226
961 440 216 228
962 441 216 230
963 442 216 276
964 579 216 217

Angles

1 1 76 79 81
2 1 81 83 85
3 1 69 73 76
4 1 73 76 79
5 1 79 81 83
6 1 327 329 331
7 1 329 331 333
8 1 53 55 57
9 1 325 327 329
10 1 51 53 55
11 1 57 59 61
12 1 59 61 63
13 1 61 63 69
14 1 55 57 59
15 1 63 69 73
16 1 333 335 337
17 1 331 333 335
18 1 35 37 39
19 1 33 35 37
20 1 335 337 339
21 1 337 339 343
22 1 339 343 345
23 1 343 345 350
24 1 49 51 53
25 1 41 43 49
26 1 43 49 51
27 1 259 261 263
28 1 15 17 19
29 1 13 15 17
30 1 11 13 15
31 1 39 41 43
32 1 37 39 41
33 1 31 33 35
34 1 30 31 33
35 1 263 265 267
36 1 261 263 265
37 1 267 269 271
38 1 265 267 269
39 1 26 28 30
40 1 28 30 31
41 1 269 271 272
42 1 272 274 276
43 1 23 26 28
44 1 271 272 274
45 1 317 319 321
46 1 350 352 356
47 1 352 356 358
48 1 313 317 319
49 1 5 7 9
50 1 7 9 11
51 1 307 309 311
52 1 356 358 360
53 1 309 311 313
54 1 311 313 317
55 1 301 307 309
56 1 243 245 248
57 1 245 248 250
58 1 358 360 362
59 1 360 362 364
60 1 362 364 367
61 1 250 255 257
62 1 345 350 352
63 1 9 11 13
64 1 248 250 255
65 1 293 295 297
66 1 286 288 293
67 1 288 293 295
68 1 284 286 288
69 1 299 301 307
70 1 297 299 301
71 1 295 297 299
72 1 17 19 21
73 1 19 21 23
74 1 280 284 286
75 1 21 23 26
76 1 276 280 284
77 1 274 276 280
78 1 121 124 126
79 1 124 126 128
80 1 126 128 130
81 1 128 130 131
82 1 130 131 134
83 1 83 85 87
84 1 87 90 92
85 1 85 87 90
86 1 131 134 137
87 1 134 137 139
88 1 158 160 163
89 1 160 163 165
90 1 120 121 124
91 1 118 120 121
92 1 116 118 120
93 1 209 211 213
94 1 92 94 96
95 1 90 92 94
96 1 94 96 98
97 1 139 141 143
98 1 137 139 141
99 1 163 165 167
100 1 153 154 156
101 1 165 167 173
102 1 114 116 118
103 1 108 114 116
104 1 102 106 108
105 1 99 102 106
106 1 106 108 114
107 1 98 99 102
108 1 147 149 151
109 1 211 213 214
110 1 213 214 215
111 1 96 98 99
112 1 141 143 145
113 1 143 145 147
114 1 145 147 149
115 1 149 151 153
116 1 173 175 178
117 1 151 153 154
118 1 167 173 175
119 1 214 215 216
120 1 201 203 205
121 1 203 205 207
122 1 196 197 199
123 1 194 196 197
124 1 192 194 196
125 1 199 201 203
126 1 197 199 201
127 1 3 5 7
128 1 205 207 209
129 1 207 209 211
130 1 186 188 190
131 1 190 192 194
132 1 188 190 192
133 1 184 186 188
134 1 154 156 158
135 1 156 158 160
136 1 238 241 243
137 1 241 243 245
138 1 1 3 5
139 1 236 238 241
140 1 219 221 226
141 1 216 219 221
142 1 221 226 228
143 1 226 228 230
144 1 175 178 180
145 1 178 180 182
146 1 180 182 184
147 1 182 184 186
148 1 230 234 236
149 1 234 236 238
150 1 228 230 234
151 1 215 216 219

Dihedrals

1 2 349 347 348 346
2 2 254 252 253 251
3 1 48 47 45 44
4 1 68 67 65 64
5 1 306 305 303 302
6 2 292 290 291 289
7 1 113 112 110 109
8 1 172 171 169 168
9 2 225 223 224 222
