LAMMPS data file via write_data, version 7 Feb 2024, timestep = 3000, units = lj

4961 atoms
24 atom types
964 bonds
603 bond types
151 angles
1 angle types
9 dihedrals
2 dihedral types

0 120 xlo xhi
0 72 ylo yhi
0 72 zlo zhi

Masses

1 72
2 72
3 72
4 54
5 36
6 54
7 36
8 54
9 54
10 54
11 54
12 72
13 54
14 54
15 36
16 36
17 36
18 54
19 54
20 36
21 72
22 36
23 36
24 72

Atoms # full

5996 0 24 0 5.192753021437207 0.8156752293695954 0.38911466252725785 0 1 0
5344 0 24 0 12.779372660490859 4.568525565043686 2.971750268671179 0 1 0
3893 0 24 0 18.749043601219057 2.6679773004712386 3.9096002650286428 0 9 0
4471 0 24 0 23.94908856751774 2.6392782423189405 3.165994032478031 0 9 0
5209 0 24 0 20.8451743090285 7.0865849999724295 0.9331389673586631 0 2 1
1466 1116 24 0 29.21348120931559 2.6042660417975783 2.498732493866991 0 7 0
3477 0 24 0 26.44255182784549 5.843379665077208 7.099595387156437 0 8 0
1850 1500 24 0 37.99496486443276 6.957011053023886 6.211303705626386 0 4 1
1432 1082 24 0 34.22765015866726 3.5724051502577825 3.0379555036750094 0 7 0
2034 1684 24 0 39.44109940275556 4.296713153483758 2.2564921820069417 0 4 1
5948 0 24 0 6.282871504782203 10.294162291305964 6.820142790872355 0 1 0
5843 0 24 0 8.655483844343493 7.846243461697851 2.1409022718822217 0 1 0
5418 0 24 0 12.134970639544711 11.083638775215135 4.375493325932772 0 0 0
5483 0 24 0 14.912857630883535 13.217788024972444 1.3647538475764887 0 0 0
5788 0 24 0 16.044062293444668 8.36292558851446 2.9139179599239067 0 1 0
4215 0 24 0 20.151011060656604 7.456583430055188 5.7225240996813715 0 9 0
4148 0 24 0 19.903713307114216 11.531747192255489 2.610597616623264 0 9 0
5634 0 24 0 24.520302029366537 9.521518683995142 3.8512028471283797 0 1 0
4977 0 24 0 29.64480526159787 7.756672786245214 3.5038909164971095 0 5 1
1358 1008 24 0 31.607723217286665 12.07595199716299 5.365319954419881 0 7 0
4155 0 24 0 24.188109054827777 13.912450449665348 5.66865304644263 0 9 0
1255 905 24 0 27.057277415125128 14.035495330570138 1.826806476995351 0 7 0
5061 0 24 0 33.246991977690854 7.441258217328094 6.655890166209509 0 4 0
1400 1050 24 0 36.255717575570245 11.586708669889884 7.174807777660448 0 4 0
2733 2383 24 0 39.79057963583516 9.267027336732522 1.8065507085019068 0 4 1
2827 2477 24 0 34.41644227306387 9.157077949283169 1.836082578110087 0 6 1
433 83 24 0 36.99482163142672 14.002065176791234 2.1724029775815312 0 6 0
5970 0 24 0 7.367569205720785 20.274071701742656 6.6332668266026475 0 0 1
5685 0 24 0 15.55709287244615 14.831561568801433 5.7810823945027625 0 0 0
5848 0 24 0 9.713946551969041 15.191871777820346 5.160283150052952 0 0 0
5710 0 24 0 10.199478267470987 18.180070303141342 0.9400638554607103 0 0 1
5378 0 24 0 12.461770584165318 19.43281009988031 5.337533262446759 0 0 1
5196 0 24 0 19.73422240670823 17.67863855349058 6.104192942261473 0 2 0
5199 0 24 0 21.829494771523656 16.118171468948553 1.7698547782552403 0 2 1
5265 0 24 0 16.524226667332723 18.84882531449984 1.885212659936848 0 1 0
6085 0 24 0 24.70684192354596 18.755026995186547 5.130676015080357 0 0 0
548 198 24 0 29.09160976632269 17.254540683070562 5.796383189729754 0 8 0
4066 0 24 0 28.39788924119857 18.888983821750436 0.8092132064608288 0 9 1
5393 0 24 0 32.56684153909661 16.177030907105017 1.9719673636241963 0 0 0
598 248 24 0 37.10236035048911 19.324855617298848 3.110843521599671 0 4 0
1157 807 24 0 33.13213082891597 20.59302407971652 5.92451853857172 0 7 0
1246 896 24 0 34.91561704895988 16.19699407229201 6.458606926867521 0 5 0
5906 0 24 0 6.111203004468584 23.22776858899402 2.593398249186258 0 0 1
5904 0 24 0 10.543894295697182 24.358341227939203 5.594778350908819 0 0 1
4524 0 24 0 13.027841509787956 22.534990258063583 1.4101506601654217 0 9 0
5610 0 24 0 15.512656150314763 26.304817082913306 3.615017072088464 0 0 0
5897 0 24 0 9.931035107176562 27.06432887761391 1.704919704803963 0 0 1
5833 0 24 0 19.53774157179706 22.477759288944444 3.1770709966220436 0 0 1
4953 0 24 0 23.62430779764614 21.95842383150572 1.1663173001271603 0 5 1
2119 1769 24 0 20.06441250230138 27.239823064326465 6.418460603238908 0 8 1
5561 0 24 0 19.638596556695436 27.8872939300464 0.42951201966860586 0 0 1
4205 0 24 0 24.61654408140503 27.012502365554347 2.838650668695081 0 8 0
404 54 24 0 27.444801571264044 22.80436460206822 4.402727873691536 0 7 0
5412 0 24 0 29.6352493998544 26.93993272855282 1.2068672771730007 0 0 1
3606 0 24 0 32.420405283468256 25.931267079987556 5.327329844572568 0 8 1
656 306 24 0 37.321013314385596 24.676334983915318 5.678965030209402 0 4 0
2758 2408 24 0 38.00442650068684 27.41933217038407 1.7193245072165129 0 5 1
632 282 24 0 34.28170678454037 23.801639009800805 0.7941795978962825 0 4 0
5863 0 24 0 6.6829911932655 30.79867272799539 4.9956736314443235 0 0 0
6190 0 24 0 6.4226243790160975 35.68682767259863 3.3282868694997036 0 0 0
5824 0 24 0 11.346951042867541 35.201025889500514 3.1772547585419355 0 0 0
5627 0 24 0 12.419020810162081 30.29187568080772 5.520866829712064 0 0 0
5641 0 24 0 13.755592460363467 31.098445524804468 0.4059779790163502 0 0 1
5482 0 24 0 8.496823373276575 31.900253222962583 0.4194156271542857 0 0 0
1416 1066 24 0 22.715443412461468 31.748996325573174 4.0849014981665555 0 8 0
1333 983 24 0 17.888373276666684 31.072305610031062 3.8718200411822785 0 8 0
5449 0 24 0 16.83356082664135 35.87659530098622 3.0629269294375874 0 0 0
4317 0 24 0 21.21730005178537 35.71780995129245 0.979481934902823 0 9 0
1233 883 24 0 30.89969522360529 31.53510287354546 6.431632667212419 0 5 0
3603 0 24 0 28.12523128602473 33.70408082751889 2.6392569519733784 0 9 0
427 77 24 0 36.20160035272932 35.63595300736148 4.444897106992914 0 5 0
1896 1546 24 0 33.01288683811586 32.38332560496317 1.7204500948496322 0 6 1
2781 2431 24 0 36.1407856822796 29.670115288130187 5.804274404138295 0 7 1
5853 0 24 0 5.525476170686751 4.710899081901159 9.197649720108473 0 1 0
5954 0 24 0 11.290524251837066 2.2087118463684856 9.241747141653967 0 1 0
6090 0 24 0 9.498991317222918 4.873457437368646 13.094296243053595 0 1 0
534 184 24 0 15.685439189167619 5.001257222294726 7.833846985764982 0 7 0
5460 0 24 0 15.886473201831357 3.585536557867109 13.408950056889578 0 1 0
5224 0 24 0 10.014620537906634 6.728922942181401 7.439460208714739 0 2 0
6194 0 24 0 9.505636835302411 0.13917339830455347 13.178021849541432 0 1 0
4922 0 24 0 22.222154431470724 2.991830308112522 7.906084289830585 0 6 0
4704 0 24 0 17.557890762707096 0.5707076222556354 8.726753473641445 0 9 0
3285 0 24 0 20.82730418479922 0.7162975822920244 12.495009248100372 0 9 0
1288 938 24 0 23.370855439900314 5.6162131930768044 13.347289151647782 0 7 0
4607 0 24 0 30.392071382125394 2.6944536450904946 7.586700180451942 0 7 0
1374 1024 24 0 26.432651973660626 1.9187384835071986 10.790625550604846 0 8 0
699 349 24 0 30.490143325942825 5.768099841994879 11.448297447604068 0 7 0
5101 0 24 0 35.43591385470405 3.0440849050628107 8.133033403521024 0 3 0
4054 0 24 0 32.546112747135034 1.2708606862542031 13.425397021754819 0 7 0
1144 794 24 0 37.37322140804089 2.118580014254158 12.95127034470989 0 4 0
659 309 24 0 39.58033398012118 6.607249962725462 10.717883693382955 0 4 0
6179 0 24 0 7.816890702674962 10.910748294043222 11.214741336002584 0 1 1
394 44 24 0 15.050638204684622 10.640681365772243 8.177260443036838 0 9 0
5536 0 24 0 12.441192347655278 12.981840446377854 11.396582459314525 0 1 0
5331 0 24 0 13.750612408021704 8.279590411250906 12.106283442373181 0 1 0
650 300 24 0 18.587932690703834 7.319322485384361 10.916097325912856 0 8 0
4391 0 24 0 23.710293934232002 8.57202145037136 9.404120166175648 0 9 0
3265 0 24 0 19.605252652692137 12.067957504030016 7.834504398492219 0 10 0
464 114 24 0 23.849849605288576 12.00677029944918 13.223705044368145 0 7 0
5311 0 24 0 17.184069610010337 14.38404011777127 11.302182158829487 0 1 0
1429 1079 24 0 27.231211563429024 8.852549089619163 13.527980955222006 0 8 0
633 283 24 0 28.98456970904834 9.515080937136183 8.540412963836973 0 7 0
4924 0 24 0 27.253893797741767 14.082173399563274 10.153557927097703 0 5 0
1420 1070 24 0 32.172968412559385 13.285662618847477 10.214511980811128 0 7 0
4901 0 24 0 34.46298935048612 9.072687625028298 11.41360290362695 0 8 0
1269 919 24 0 39.136867153088275 11.947070137497688 11.260568854319988 0 5 0
5691 0 24 0 8.860102744033425 17.018144986353025 10.668051429152284 0 0 0
5384 0 24 0 14.63388083073114 18.07017553652802 9.120908991506234 0 0 0
5909 0 24 0 13.176776591189412 17.436745724324403 13.773948518764847 0 0 0
4976 0 24 0 22.213913602312953 15.681312529337154 10.37541403776781 0 5 0
5522 0 24 0 20.180592901861583 20.147438059444724 10.475358451270386 0 0 0
3307 0 24 0 29.168139854524384 16.265646971044454 14.058846260047703 0 8 0
1431 1081 24 0 25.78721331699566 19.3785277163273 10.182434273907147 0 8 0
3319 0 24 0 31.83031599700054 18.34577028282876 10.176942112541479 0 8 0
641 291 24 0 38.07416906875047 19.896879152140738 8.330827158447578 0 4 0
405 55 24 0 36.23012655203578 16.14497845394953 11.843179688385057 0 4 0
2861 2511 24 0 39.79329000013572 15.525626544336209 7.615352474294066 0 5 1
6226 0 24 0 4.859168556416814 24.403703213060343 7.858453187870826 0 0 0
6030 0 24 0 7.355185870725022 24.837291490897552 13.013836817189686 0 0 0
5581 0 24 0 15.92388117835121 22.66218074492231 7.809602138047576 0 0 0
6003 0 24 0 11.158194193874532 21.845989373738412 10.518316167201078 0 0 0
5983 0 24 0 12.340534747847364 25.82305461398836 13.539295217062593 0 0 0
5221 0 24 0 14.34211742901065 26.970618533694203 9.284758993945161 0 1 0
5369 0 24 0 15.66318554296323 21.828316355050717 13.060484675818854 0 0 0
6099 0 24 0 8.56845942854301 28.604930541005128 9.184425021217821 0 0 0
686 336 24 0 23.508026824762815 23.186150384531345 7.824881601201455 0 8 0
3815 0 24 0 23.475589530564527 23.351500938205472 12.818612209644222 0 9 0
6038 0 24 0 18.934846894511157 25.185472712290615 11.086780705921102 0 0 0
5285 0 24 0 16.49331416725345 28.70985949054417 14.183237632038972 0 0 0
4981 0 24 0 23.307984740409907 28.246069254305 10.999974317942016 0 5 0
1264 914 24 0 27.390758763024447 27.48552098471946 7.321757556245634 0 9 0
4086 0 24 0 28.366569799615153 21.66719906997042 13.78839229876922 0 9 0
3334 0 24 0 27.774069286529233 26.398962935699547 12.594669325118444 0 8 0
5035 0 24 0 30.01059049076015 22.898238222831587 9.044998775256174 0 4 0
692 342 24 0 34.532705459489264 22.981409425356475 10.417935688850703 0 7 0
605 255 24 0 39.18017456348735 23.043422929085175 11.933415829302415 0 5 0
5343 0 24 0 32.538981669086645 27.74446350904346 10.0118223716713 0 0 0
1194 844 24 0 37.69935586870582 27.727067366689035 10.426453464804803 0 5 0
1403 1053 24 0 32.645486990493076 24.907080121185682 14.311933149900696 0 7 0
6077 0 24 0 4.828649496717964 35.179656895387495 8.275114430599382 0 0 0
5949 0 24 0 6.478115066498238 34.05759763434441 13.351292721645017 0 0 0
5705 0 24 0 14.949051451942974 34.44337483948029 7.644631040400388 0 0 0
5506 0 24 0 10.06867235886338 34.06657167055537 7.869854519844996 0 0 0
5715 0 24 0 11.822637130076266 30.792901246393882 12.379373449898798 0 0 0
5203 0 24 0 15.902249392342243 34.34010628399054 12.929292156918141 0 1 0
6066 0 24 0 17.746323315014873 30.6747596355165 9.464119031144937 0 0 0
5395 0 24 0 20.34788711098687 32.0926567666316 13.664787423440183 0 0 0
4954 0 24 0 22.307401772121562 32.22216410533618 9.065383395676072 0 5 0
5268 0 24 0 26.535561699951376 33.42867965786313 7.581071963994085 0 1 0
434 84 24 0 29.540664921553848 31.786527369219645 11.796574381961243 0 6 0
5410 0 24 0 25.719292662062298 34.99388533578035 12.03497087886754 0 0 0
1163 813 24 0 34.4076415848637 29.727702203519286 13.979024114036847 0 5 0
1465 1115 24 0 34.108883265658065 33.24592413797785 9.977989507994378 0 5 0
435 85 24 0 38.762404917713646 32.57646628462348 8.413016214643877 0 5 0
442 92 24 0 38.252655170755965 33.84006979146483 13.274926743085462 0 5 0
5615 0 24 0 8.700599766833795 0.4031656266334351 20.575142891117682 0 1 0
5623 0 24 0 13.258294144190025 0.3645301202517873 17.040827414926206 0 1 0
6083 0 24 0 15.167966709016037 5.224779704491041 18.817145735803283 0 1 0
5711 0 24 0 15.853432104845172 1.3525364954385597 21.423596600291056 0 1 0
4656 0 24 0 21.7315417133505 3.8550843086141917 19.51682059430837 0 9 0
5459 0 24 0 18.196656725152316 1.1451680070868575 17.078718116223474 0 1 0
732 382 24 0 23.70182094547706 0.565769244611875 16.603499380629806 0 7 0
5206 0 24 0 19.083942419672187 5.9924672596665145 15.833049985845046 0 2 0
387 37 24 0 31.460896224910478 0.19265168580937544 18.489166754358195 0 7 0
644 294 24 0 28.29410666785626 3.628034521846611 15.598112262199672 0 6 0
3919 0 24 0 31.479538792759854 4.640467531688801 20.961866703072616 0 8 0
1126 776 24 0 36.227662567676944 2.225172590162512 17.949357523921055 0 7 0
606 256 24 0 32.607060634911356 6.354767707972229 16.44398299483332 0 6 0
1251 901 24 0 35.900744026846894 6.374529118285663 21.21661425172087 0 5 0
1331 981 24 0 37.60808350066313 6.875515372872597 15.500760780819306 0 5 0
5650 0 24 0 11.478424335021012 8.102550689292267 17.431926386765767 0 1 0
6183 0 24 0 8.857045080393336 13.705498419505009 15.11999213257719 0 0 0
6113 0 24 0 14.436853232592807 13.310422850633598 16.034750520097504 0 0 0
5547 0 24 0 12.444618991361562 12.578534503476858 20.338016813281417 0 0 0
4589 0 24 0 18.949096069289734 11.039175500703246 14.547575485497305 0 9 0
4191 0 24 0 22.910477847228552 8.923146990511462 17.430226380181036 0 9 0
3286 0 24 0 18.651422853267196 8.758309299621066 19.912915436234815 0 10 0
1283 933 24 0 22.612290799565294 12.307972319920072 21.371843658493763 0 8 0
1181 831 24 0 17.338328159567283 14.037491091132203 19.851681650158966 0 8 0
554 204 24 0 22.342438149287485 14.173908740688809 17.110951351267502 0 7 0
4312 0 24 0 31.23994225484625 10.99304611599054 14.673227385265147 0 8 0
1394 1044 24 0 27.9510124610473 7.245723480966592 19.355578182576583 0 7 0
1161 811 24 0 27.134263245300705 12.432880957819863 17.741536340357975 0 8 0
3294 0 24 0 33.04953806768782 10.476047644850054 19.208180105902795 0 8 0
1241 891 24 0 36.14106104845753 12.67835248496399 15.363997687982 0 4 0
1208 858 24 0 38.124825020795 11.122259942320124 19.785003910652865 0 4 0
5657 0 24 0 7.00847595815776 18.989562921745637 15.949078437291409 0 1 0
6233 0 24 0 7.571514164965015 20.579005077571157 20.85259839106555 0 0 0
6167 0 24 0 6.496585050252139 15.102903617848717 21.304247254657955 0 1 0
5769 0 24 0 10.468368388856858 16.7458444176509 18.533195250562425 0 0 0
3471 0 24 0 15.247086880559236 18.514067247017717 18.326827881125208 0 9 0
6111 0 24 0 11.33657248432101 21.26384198951264 16.084628840150724 0 0 0
555 205 24 0 23.43529653077164 18.50576506513323 14.975927597993357 0 7 0
4310 0 24 0 18.606831788068984 17.246054134352605 14.549434252374661 0 9 0
690 340 24 0 20.3559078394052 18.2485726832092 20.66571999148595 0 7 0
5357 0 24 0 28.849172926280485 18.84291727676589 17.840912080187383 0 1 0
4057 0 24 0 24.17545044355243 21.387467825798726 19.035231009448683 0 8 0
1253 903 24 0 32.49522806889005 15.221850961733988 17.63864701668333 0 7 0
4466 0 24 0 32.80259551907768 19.74872128743351 15.043130657029765 0 8 0
1330 980 24 0 37.4533562976857 17.502209904014727 18.491462040747795 0 5 0
1329 979 24 0 32.74614018380169 18.98182427791477 21.16865610805749 0 5 0
6181 0 24 0 3.6908352235643864 24.888926535990773 16.135124192597097 0 0 0
5782 0 24 0 9.055049544623724 25.299493316799822 18.60757563013243 0 0 0
5515 0 24 0 15.61881671452088 24.355125410471704 17.43136439751781 0 0 0
5570 0 24 0 12.823113057697633 22.034044892089124 21.440957338260723 0 0 0
5474 0 24 0 20.879526897666864 27.02263976030174 15.313781109924438 0 0 0
3891 0 24 0 20.031703280058853 22.10215994810825 16.72011547481235 0 9 0
5648 0 24 0 20.72213901043909 24.306815272936 21.513482672917966 0 0 0
1383 1033 24 0 18.10670114317856 28.546244148483193 19.0959834318878 0 8 0
1159 809 24 0 30.940077289300444 23.209224670741346 18.706215088727188 0 8 0
4198 0 24 0 25.987176193878106 25.539784397821307 17.648408975873355 0 9 0
1336 986 24 0 37.77805101353897 22.547990314662247 18.218594058109158 0 4 0
1275 925 24 0 39.10061207180713 25.901275710276156 21.43228244174006 0 4 0
1323 973 24 0 34.19021959716933 26.969106537013065 18.36692219930545 0 5 0
1139 789 24 0 37.816795665937995 26.55281714909786 14.992977149829006 0 5 0
6210 0 24 0 7.181752416915372 35.693898906433034 21.54304787687003 0 0 0
5492 0 24 0 12.333182337585667 28.80180877585903 18.00433427128124 0 0 0
5600 0 24 0 8.25669706662302 30.37340869130797 20.335081139701185 0 0 0
5740 0 24 0 10.511289270315007 33.96369835535293 16.360732259761924 0 0 0
5434 0 24 0 15.09533153683993 33.20526155946202 17.48120388178773 0 0 0
3910 0 24 0 22.264275979574524 32.222131888031875 19.659062775226502 0 9 0
4139 0 24 0 18.39808140725428 34.73911668642763 21.393201585814055 0 9 0
3462 0 24 0 24.935178286071732 30.464761751395994 15.57714690136051 0 8 0
1368 1018 24 0 30.014395540095553 29.169071212002347 16.166894415747606 0 7 0
4772 0 24 0 27.96832110313927 34.324551366120915 16.83197289817 0 9 0
3798 0 24 0 27.074112507336107 30.705428324739433 21.13647743602388 0 8 0
1459 1109 24 0 31.99161060627654 32.258106653638954 19.433681872231162 0 5 0
1354 1004 24 0 32.99360864354327 34.90714595303191 14.4819723191863 0 7 0
567 217 24 0 37.616680790569305 30.580439724445924 17.84662456677147 0 5 0
1451 1101 24 0 36.347079033921716 33.83737945136127 21.234529851533402 0 7 0
5979 0 24 0 7.355315976089424 5.572956117478286 26.618179698128266 0 1 0
5684 0 24 0 10.718561706737855 4.593259684219801 21.63610539949402 0 1 0
5862 0 24 0 10.534331985054152 1.0442617885961711 25.27323251294023 0 1 0
5732 0 24 0 13.466277852092164 4.83726588918339 27.34884652099332 0 1 0
428 78 24 0 22.665964976201955 2.3180168586656054 26.023966389427976 0 8 0
5376 0 24 0 17.913328878227865 2.839462960177346 28.547199340382285 0 1 0
5228 0 24 0 18.696645255197083 5.429535864856226 23.875193792811725 0 1 0
5081 0 24 0 26.415049467812256 2.672888652026549 21.781579833719306 0 4 0
5185 0 24 0 30.22826150532167 1.953087833585374 25.179973341713143 0 2 0
5438 0 24 0 26.589209977248874 7.030089014928542 26.052170627630577 0 1 0
1129 779 24 0 39.18344270023392 1.7981217045815747 21.919285051957406 0 6 0
1117 767 24 0 35.48636447393365 3.428613367233718 25.167900218429065 0 8 0
5891 0 24 0 7.636635738235713 13.70093982105913 26.628799871751024 0 0 0
6087 0 24 0 9.524754859561078 9.630643761713511 24.74954767714167 0 1 0
5585 0 24 0 14.204453115505865 8.137261534350356 22.814470076943678 0 1 0
5813 0 24 0 12.871198347755696 13.044119135290849 25.84010689851307 0 0 0
487 137 24 0 23.28507068834165 7.516539261690995 22.617674946794953 0 7 0
3574 0 24 0 18.114828679297013 11.110346528825126 24.34166421686277 0 8 0
4732 0 24 0 23.38745186016095 11.169696972943777 26.46060680856427 0 8 0
1263 913 24 0 27.389129528291893 11.213609771795436 22.87790904255511 0 8 0
1385 1035 24 0 31.695611422911714 8.226992733055694 24.639777758185524 0 6 0
1120 770 24 0 31.306387414493052 12.8749634184245 25.92278387750175 0 4 0
1234 884 24 0 38.88486949474116 7.381771619952021 27.77595969446144 0 4 0
688 338 24 0 36.83357781276171 11.176676232157238 24.783371258805197 0 5 0
5856 0 24 0 5.725549278582045 19.384555811099762 26.006472005317494 0 0 0
447 97 24 0 15.624711692992177 16.068755831841166 23.665810754983607 0 7 0
5663 0 24 0 10.468070824507308 17.330704945696183 24.19722808805675 0 0 0
5028 0 24 0 13.723226973984458 18.27107252968439 28.22596989038405 0 5 0
384 34 24 0 16.896575701812747 14.811192736102418 28.436724286045997 0 8 0
5125 0 24 0 21.30392353260562 16.21078739946293 25.114673115282937 0 3 0
3297 0 24 0 17.22081360830854 20.811880450551023 24.209674266053806 0 9 0
1217 867 24 0 22.866898323551737 20.669418455569232 24.80216177437839 0 8 0
4971 0 24 0 24.686110829443496 17.16341108830248 21.722822075290253 0 4 0
1316 966 24 0 29.51005057699924 15.39582300786712 22.049151847461292 0 6 0
380 30 24 0 26.356749935003936 15.304987524543447 26.628904720610244 0 5 0
5166 0 24 0 30.185163704561457 18.076009331229933 26.281426267358434 0 2 0
5324 0 24 0 27.881040148077357 20.5545289336772 22.73121848458923 0 1 0
1203 853 24 0 34.9856046524165 14.869000404568165 22.22850538223203 0 6 0
445 95 24 0 35.886415326141716 15.68388812613848 26.71077465858852 0 5 0
1162 812 24 0 34.72838835948821 20.478707492698128 26.03294464777385 0 5 0
1418 1068 24 0 39.088858671522125 20.537684838677734 22.555436998992025 0 5 0
5760 0 24 0 5.850241092470294 25.610692704574525 24.268120474928626 0 0 0
5764 0 24 0 10.392179416267782 21.989931603999686 26.173470864114037 0 0 0
4201 0 24 0 14.836594208110498 24.383727541938608 27.30800328280111 0 9 0
1448 1098 24 0 15.9772043302779 25.682119856287358 22.904767785830025 0 8 0
5440 0 24 0 11.00010645950221 26.601153999805263 24.31533132383272 0 0 0
1328 978 24 0 20.307197180510848 24.86571695683607 27.109364313905587 0 8 0
549 199 24 0 23.15620273392546 28.396928970975495 23.459691830526054 0 6 0
562 212 24 0 30.71983792930496 27.14294660665832 21.96649846510293 0 5 0
4367 0 24 0 26.38533936349016 25.010635927897606 22.14342869761869 0 8 0
1278 928 24 0 25.456430202591513 24.026484284098263 27.112826787826272 0 7 0
1119 769 24 0 30.863457035472237 23.42528546846852 25.844226839142788 0 7 0
1344 994 24 0 29.62357008691666 28.222655902369887 27.328733532853565 0 7 0
4643 0 24 0 24.13954341970469 28.61927772951651 28.399919817964665 0 8 0
2079 1729 24 0 34.56921598329779 23.756712428434962 22.17408838121173 0 4 0
575 225 24 0 35.42368105806295 25.490397082398953 27.60260707877624 0 5 0
6067 0 24 0 6.222838366187072 30.507723595550726 26.544609571280233 0 0 0
6097 0 24 0 5.707110835352523 35.80611908577334 26.41662170579877 0 0 0
5281 0 24 0 14.453114500112363 31.65941960067724 22.67327497569355 0 0 0
5618 0 24 0 10.262298126434091 33.56962036117485 25.902957690462383 0 0 0
4305 0 24 0 14.097264095862206 29.500138432850303 27.483300167433534 0 9 0
4970 0 24 0 18.551611655623695 29.496219637994905 23.894864379289746 0 5 0
4990 0 24 0 21.704453069838056 33.26440465058569 25.23355316836178 0 5 0
5427 0 24 0 16.040812665934308 34.05653156621416 26.567876454001887 0 0 0
4503 0 24 0 25.297023373433678 35.22066694539362 22.475197433457133 0 9 0
658 308 24 0 26.31397098605612 33.164246335834896 26.960137649295515 0 8 0
1293 943 24 0 31.55116627058365 31.62700387929615 24.25550694552688 0 7 0
1147 797 24 0 35.417955270378464 29.05087671384156 22.419366156144783 0 5 0
395 45 24 0 36.860967330965984 32.14454477002513 26.879716831687677 0 4 0
5850 0 24 0 5.430750011211386 0.9000344739610463 29.052796284724 0 1 0
5874 0 24 0 8.590194395326723 4.144038573668237 31.23211843733332 0 1 0
5545 0 24 0 12.108838268935058 0.8072466500635744 30.726641475227655 0 1 0
4832 0 24 0 15.630596853257 2.286691707677 33.76261916483591 0 10 0
5845 0 24 0 10.672082368970589 2.697730615491517 35.944590442849766 0 1 0
3572 0 24 0 13.07233184092173 6.971658942797641 32.98113634178735 0 9 0
628 278 24 0 22.52472382679544 6.750559031541915 29.151312117067857 0 7 0
1396 1046 24 0 21.09141298078044 1.9915301769277 35.89792920410894 0 8 0
3795 0 24 0 21.78162186392752 2.3377868479388755 31.079710670087753 0 9 0
5217 0 24 0 18.290062005913317 6.761924586207234 32.134084540733674 0 2 0
638 288 24 0 26.57374778049335 1.254646975352571 29.393658386274517 0 7 0
4921 0 24 0 31.176425106570754 0.5454218717164746 35.45694617246477 0 5 0
1262 912 24 0 31.80003453759879 1.633775722029163 30.36294845358747 0 8 0
2745 2395 24 0 26.737018604382925 2.6915533534774863 34.87362728834367 0 8 0
1322 972 24 0 27.11539356485094 5.762364391123703 31.20404639089884 0 8 0
1164 814 24 0 34.05204758908072 6.116444638488853 28.834883935977967 0 6 0
449 99 24 0 36.9434610904411 2.667209883114003 31.805011902514035 0 4 0
1356 1006 24 0 32.35734795911106 5.572872939102397 34.06817864121659 0 5 0
6168 0 24 0 3.85030665101927 8.814831357818251 31.06871569559623 0 0 0
6032 0 24 0 5.312713404371398 13.343988682727893 32.48173552007011 0 1 0
5973 0 24 0 9.288592014359542 12.826236586566855 35.10224650039556 0 0 0
5335 0 24 0 15.452118520816665 9.459581935400962 28.870309225203 0 1 0
4203 0 24 0 14.178624983451387 12.970733738192825 35.195277910455886 0 9 0
5527 0 24 0 9.53444622962302 9.086945929218151 30.196826571384754 0 0 0
4494 0 24 0 12.562473360166704 13.447288715625566 30.958515939524563 0 9 0
472 122 24 0 19.96991669358883 10.988324632365874 30.437356255794725 0 8 0
3300 0 24 0 23.210499728292294 7.973916104437833 33.84180930915154 0 9 0
3820 0 24 0 20.14167876139841 12.831346356116475 34.9736852026149 0 9 0
1388 1038 24 0 30.554084501968862 9.705353289896083 29.204492296844762 0 8 0
1254 904 24 0 25.740447501941517 10.971070206089566 30.67774431897292 0 5 0
5191 0 24 0 29.54734550387492 10.060175595644782 34.27456334079313 0 2 0
2124 1774 24 0 30.04703589774115 14.17199099710038 30.78761305722143 0 6 0
1301 951 24 0 34.1134700614486 11.471416336882307 33.386074645307936 0 6 0
1133 783 24 0 37.12318569372435 7.872707360220222 33.12899663210637 0 4 0
1193 843 24 0 35.51620390876791 11.23892746828073 29.039899247918235 0 5 0
521 171 24 0 39.228149284051355 13.360630228632026 34.36927653139527 0 3 0
5810 0 24 0 6.756861839776087 17.041845921127646 35.362681386867834 0 1 0
5348 0 24 0 9.000637566977609 16.853836246501434 30.20588304530121 0 1 0
5932 0 24 0 13.15245026172004 18.343897112327962 35.48166121039828 0 0 0
1103 753 24 0 19.860729616779924 19.806280167022024 29.135712297535672 0 8 0
4916 0 24 0 22.384714844746995 15.685656590176505 30.60208492181348 0 6 0
4301 0 24 0 16.707197928891073 17.36048380947784 32.40075771485259 0 9 0
1136 786 24 0 21.18048678953307 18.42945639377922 34.84765849864779 0 8 0
1307 957 24 0 26.30677493009269 15.666071007113876 33.838543253620045 0 6 0
5129 0 24 0 26.878399132791934 19.256069090672224 29.880966319137997 0 3 0
626 276 24 0 30.660380008005117 19.693088583806535 34.61673370685611 0 5 0
4809 0 24 0 26.061700042039394 21.02259457631461 34.56245617432618 0 8 0
2709 2359 24 0 31.677707584049056 15.069893478153748 35.58346219705192 0 6 0
2156 1806 24 0 39.99333454470636 17.35884105063139 32.222216363829645 0 5 0
5042 0 24 0 34.58129435587462 16.080348958267688 31.260286704314765 0 4 0
1340 990 24 0 36.13730943541048 18.89978755712004 34.96564115956445 0 4 0
1464 1114 24 0 32.12627097369064 20.652959000967382 29.977419263207963 0 5 0
5976 0 24 0 6.956626631231213 26.56698474768185 33.53741813184565 0 0 0
5759 0 24 0 5.676440227939536 21.602126504860838 31.182317534469213 0 0 0
5844 0 24 0 9.189545840907687 21.61524427440382 35.21783740026174 0 0 0
5590 0 24 0 11.765231709700094 26.56906104834028 35.0985420918857 0 0 0
5321 0 24 0 12.174949568204697 22.24401946812681 31.00034480295129 0 1 0
5510 0 24 0 10.280820671969535 26.916196064307332 29.444516905380407 0 0 0
5567 0 24 0 16.614664275963708 26.775041503697487 31.73870389564772 0 0 0
5525 0 24 0 17.97390921688524 22.359709395162593 33.316730398587495 0 0 0
4140 0 24 0 23.03729249295618 23.74536601090985 31.40837021432651 0 9 0
5389 0 24 0 21.481081797986175 27.685903655654148 34.14710178676137 0 0 0
1180 830 24 0 29.079226311973198 24.366660920470352 30.713906058357388 0 6 0
3270 0 24 0 30.642465505782482 25.572907167856833 34.84069483225814 0 8 0
4300 0 24 0 26.066380044845832 27.154226929384556 33.608691413212426 0 9 0
388 38 24 0 37.81220691745668 21.63074012698302 29.948845920929955 0 5 0
1312 962 24 0 35.12046961990885 23.283821362730514 33.82821817278569 0 5 0
2446 2096 24 0 38.02172935650119 28.57474887061616 35.27009775618513 0 0 0
5131 0 24 0 39.74246517291018 25.641055274448266 31.18583338893009 0 3 0
5997 0 24 0 8.454269160308487 33.622155690982176 30.968819563213415 0 0 0
5690 0 24 0 13.384377583572146 31.257851578149506 31.970814502240945 0 0 0
5834 0 24 0 9.578731620709855 31.190127429228422 35.44605726397698 0 0 0
596 246 24 0 22.039155295116338 34.131256379151445 30.272372153751736 0 8 0
5315 0 24 0 18.779394925920048 30.286807253595313 29.251006824858568 0 0 0
5290 0 24 0 19.02707535443143 31.392043850224848 34.88840330620131 0 0 0
533 183 24 0 16.9483530432349 35.312273261144476 31.51914060213354 0 8 0
5070 0 24 0 26.309218175223055 32.31293299566458 32.12401628011679 0 4 0
2838 2488 24 0 28.708125587929946 35.42728938583717 35.773681882243736 0 6 0
1389 1039 24 0 30.24737914589516 29.962988341748208 33.356293442805466 0 5 0
446 96 24 0 31.947590220846354 32.84300199321672 29.058769568318187 0 6 0
2779 2429 24 0 34.75321292716624 33.21153098453195 33.95149982786487 0 5 0
621 271 24 0 37.46637499918712 35.90126568193026 30.70928817025305 0 5 0
602 252 24 0 34.99111916356948 29.24783919945977 31.453663170534515 0 5 0
326 16 9 -1 39.16436696824751 30.921950971350743 30.895400337043142 0 0 0
325 16 3 0 39.77341718132745 32.86105018842556 33.63984600794882 0 0 0
5821 0 24 0 6.760514783716141 4.3665096401159085 39.19249559992378 0 1 0
5797 0 24 0 11.561043333223509 3.2417649721817767 40.82455444455639 0 1 0
5403 0 24 0 15.804631328094734 5.767947387838656 42.27252821989829 0 1 0
3695 0 24 0 16.71984714183945 3.2965866093642653 38.26609243290369 0 8 0
4395 0 24 0 20.94490363650963 2.6837015553000656 41.72365655420645 0 9 0
4080 0 24 0 28.776499854996253 3.3822392849413325 41.775390659812636 0 9 0
2718 2368 24 0 24.392571135553844 5.7221022649433575 39.129560288835236 0 8 0
2786 2436 24 0 25.572660091891542 0.26327067881452665 39.24344104004436 0 8 0
370 20 24 0 29.402610481351704 6.3386721659494585 37.80350792381907 0 8 0
2695 2345 24 0 33.1595610654754 3.1596112106933907 39.118156754241426 0 6 0
2584 2234 24 0 38.99765664252273 0.14758377165180556 42.84408873782413 0 4 0
2114 1764 24 0 36.57996121035049 5.3461558530748885 42.818935874794924 0 5 0
1304 954 24 0 39.50388087668718 4.009036584093023 39.17453048115374 0 5 0
5716 0 24 0 5.817020662467437 10.018960479087317 38.24739903326276 0 1 0
5325 0 24 0 7.768474640269458 12.590853166524823 42.89535913374173 0 1 0
5594 0 24 0 9.51570630874148 8.298385857756404 40.86715807779204 0 1 0
3566 0 24 0 14.11445926336422 8.46663605600312 37.97939053250903 0 9 0
4839 0 24 0 11.633476207682708 12.608091822710632 39.84080445164364 0 10 0
5320 0 24 0 8.987865784757279 7.52449381799328 36.14787528308733 0 1 0
4547 0 24 0 20.579410654642643 7.84906592532023 41.467085202466784 0 9 0
1994 1644 24 0 17.37160284722761 11.58861294479805 39.80957506357248 0 8 0
4493 0 24 0 19.28462075846236 7.570872032008084 36.68575445783336 0 9 0
5048 0 24 0 20.691158855428974 12.323110903195348 43.019579058526546 0 4 0
4778 0 24 0 25.49886219864613 11.587931324943662 36.209786444351984 0 8 0
2727 2377 24 0 26.76545044453617 9.73460419818168 41.133389075921464 0 8 0
2562 2212 24 0 30.639967479381465 11.953165971725152 39.11017531736127 0 5 0
2693 2343 24 0 32.22700122107835 7.6210717772331416 41.89253239670651 0 6 0
2869 2519 24 0 34.49872388478273 8.100152154367569 37.66161089530062 0 6 0
2617 2267 24 0 34.18971442082044 11.821490922741589 42.42938760576631 0 6 0
2720 2370 24 0 36.38452962704718 12.719992305616337 38.38105004270639 0 5 0
6073 0 24 0 3.587239722009377 14.5371873052618 41.208480935451746 0 0 0
6112 0 24 0 4.783261867694569 20.516916895764208 40.51206003092354 0 0 0
5993 0 24 0 1.7821925834249492 19.830896521308404 36.5068001658637 0 0 0
5950 0 24 0 8.726808170279474 16.49296084754601 40.020528892462615 0 0 0
3464 0 24 0 14.109829229034002 18.369485782718975 40.69580808250728 0 9 0
5698 0 24 0 10.796824613180371 21.092728258698543 43.12140370836854 0 0 0
3416 0 24 0 22.185619128962127 14.636756980816083 38.927942075021235 0 8 0
2014 1664 24 0 17.435439570828855 16.271206711623407 37.66539725636718 0 8 0
4747 0 24 0 21.545090815267343 17.076619431759713 42.855293471354564 0 8 0
5382 0 24 0 18.388869239310463 20.500195704961104 39.359923564136075 0 0 0
2874 2524 24 0 24.50400035084659 18.90819775121078 38.64576150016409 0 6 0
5194 0 24 0 29.684412465323934 16.93871591039405 39.81424734148071 0 2 0
2881 2531 24 0 34.35221524558838 16.99635462564521 39.8045956797304 0 5 0
1134 784 24 0 37.436205137193895 20.629331618645057 40.97298618798561 0 4 0
1968 1618 24 0 37.94728818038122 15.712019538650555 43.19353545800288 0 4 0
2768 2418 24 0 39.23214763050161 17.02704076311928 38.042636777950094 0 1 0
6027 0 24 0 2.827447636759033 24.623298895922094 40.1682637263083 0 0 0
5905 0 24 0 7.930642563037429 24.43979758733223 39.062091604426264 0 0 0
5417 0 24 0 14.447095117202887 22.424914986424557 37.58752978616999 0 0 0
5875 0 24 0 13.211211770168203 26.82096917036469 39.90521380585982 0 0 0
5544 0 24 0 22.322964898659375 22.99643108423353 41.62814288895326 0 0 0
5114 0 24 0 22.13160527274451 23.400342366937057 36.547258828863576 0 3 0
5408 0 24 0 17.335714926133154 25.064422229645675 41.75932241694509 0 0 0
5340 0 24 0 17.538038105164123 26.333613377841765 37.09617866699121 0 0 0
2082 1732 24 0 28.188510442070804 22.077153331620448 39.0561357168639 0 6 0
1954 1604 24 0 31.095026715155356 21.624850831414314 43.128161303185486 0 5 0
2619 2269 24 0 30.50653576061658 26.16084592332189 40.67218039818058 0 7 0
4812 0 24 0 25.695244866954027 26.201184484077228 39.22417037792465 0 8 0
618 268 24 0 33.23463675978365 22.098735937448 38.641899249100895 0 5 0
2767 2417 24 0 35.33914063719186 25.88985160957606 41.333398111885025 0 6 0
2047 1697 24 0 38.419683096214165 24.329535849049048 38.286913562817176 0 4 0
5689 0 24 0 13.854272530802811 34.01943971976514 41.92796334076533 0 0 0
5855 0 24 0 9.025163838935802 30.213276801927634 40.324463509937964 0 0 0
5753 0 24 0 14.410395564178408 31.27700271028878 36.698127936539315 0 0 0
5929 0 24 0 10.759232601597711 34.98359511787014 38.561554787312154 0 0 0
5587 0 24 0 17.04709783408044 30.406896091456698 41.33469074652362 0 0 0
4946 0 24 0 21.256440777562876 28.86717735054655 39.035879769191325 0 5 0
5437 0 24 0 19.822866960795572 34.606555939465004 39.61078063878818 0 0 0
5579 0 24 0 16.018813285845344 35.962130085774746 37.0780808670197 0 0 0
3901 0 24 0 24.27066982786387 32.35301129925439 41.921016484250465 0 9 0
5465 0 24 0 28.593738314112052 30.211009179257097 38.19948460087255 0 0 0
5504 0 24 0 29.023835149100474 34.620065962177485 41.913599693210635 0 0 0
1111 761 24 0 24.225862337297244 31.382423419242404 36.53659813638058 0 8 0
2723 2373 24 0 33.33875021122418 30.283077768702743 42.27098635638252 0 6 0
5008 0 24 0 37.28502468067726 32.16792299047444 38.98675770604254 0 4 0
4141 0 24 0 38.93013190276218 29.183737043743033 42.08447630880584 0 7 0
2055 1705 24 0 33.34222850757751 28.945778740350942 36.924234602505095 0 6 0
2685 2335 24 0 33.02774191484615 34.63487480890324 38.186614279530836 0 6 0
6158 0 24 0 7.185625440691383 2.290862982369139 43.515134723291546 0 1 0
5870 0 24 0 5.476625225587855 3.287465657938232 49.0523611515397 0 1 0
6058 0 24 0 14.88657027474206 1.6847394385994816 45.092513860062716 0 1 0
5516 0 24 0 10.174412543396922 1.506919803345765 47.746877390073394 0 1 0
5546 0 24 0 11.664559692853373 5.7084362362771435 45.431731120311106 0 1 0
5430 0 24 0 16.20327033968768 3.2175736551042275 49.851539455326765 0 1 0
5860 0 24 0 23.318605189289766 3.4020896879079947 49.51787314594041 0 1 0
5576 0 24 0 19.48560304951949 5.037944120239273 46.67567863798926 0 1 0
3599 0 24 0 24.34158994166092 0.41216135996318687 44.22397061790742 0 9 0
1884 1534 24 0 24.91460832547006 5.276318518374591 43.72416142559727 0 8 0
2142 1792 24 0 28.26144567023867 2.278041173034927 46.86785496563674 0 7 0
2792 2442 24 0 32.51216254610089 4.571246286492818 50.01404448222651 0 5 0
2855 2505 24 0 37.22839255374121 4.1846790130956135 47.50020383557646 0 3 0
1845 1495 24 0 32.89251841683323 2.5982474109661755 45.42777363560839 0 6 0
5505 0 24 0 7.079962746669267 8.384083263541 46.303859871046335 0 1 0
6188 0 24 0 4.116417732943238 12.747282092554244 48.044396926808155 0 1 0
5840 0 24 0 14.633910907193444 8.331323064455255 48.69662005147345 0 1 0
5299 0 24 0 10.277303137262932 12.295135803272613 48.19399412437637 0 1 0
4196 0 24 0 14.174635010559943 10.509733960111934 43.93950467060863 0 9 0
5245 0 24 0 14.665158218705361 14.241329743225245 49.390579851561775 0 1 0
3563 0 24 0 18.226939705181927 11.286935075010586 46.988100020665684 0 8 0
5139 0 24 0 22.867422101002585 13.06467217027484 47.48882338755834 0 3 0
4551 0 24 0 24.02971221753176 8.122284869702227 47.50589812416842 0 9 0
4199 0 24 0 29.18296024712764 7.587454657467912 46.25174545620075 0 8 0
2870 2520 24 0 27.326237097070607 11.443545524266117 49.092367211110464 0 8 0
2862 2512 24 0 26.304985682979428 14.241896760480449 43.22726180074953 0 6 0
5126 0 24 0 30.591993557792343 13.542026761590138 45.4625204971078 0 3 0
5300 0 24 0 38.559447437095244 9.743419457061966 43.33461602480419 0 1 0
2699 2349 24 0 34.65016157261023 8.3462899328516 46.21545750562323 0 4 0
2614 2264 24 0 37.913285278377124 12.321082531891136 47.23267350643849 0 5 0
5933 0 24 0 6.366407483587652 17.232133479896866 44.12546835674163 0 0 0
6080 0 24 0 6.532444996355876 16.780253557212408 49.83343232501594 0 1 0
5469 0 24 0 11.48361654824387 15.360366665168206 44.48590127079843 0 0 0
5120 0 24 0 14.040873300369938 18.634770112139527 46.460560950356445 0 3 0
5867 0 24 0 10.186557102784464 21.119161931416727 48.349265557969304 0 0 0
3883 0 24 0 16.668143749459112 15.298448115528679 43.7470701171465 0 9 0
4993 0 24 0 19.02179015733136 16.716530138792567 48.082947863285234 0 5 0
4254 0 24 0 22.400830593767164 20.337832474835395 46.0306991242097 0 9 0
5303 0 24 0 17.923907017407814 20.300969641153035 44.06250758140278 0 1 0
2561 2211 24 0 26.620292905926622 19.11630659360133 43.305808615480295 0 6 0
5473 0 24 0 26.418196073596814 16.350207018853194 47.91955227917462 0 0 0
2840 2490 24 0 28.5767557001357 20.93470340742527 47.235286043503685 0 6 0
2909 2559 24 0 33.51152229454093 17.495513848679888 44.83599464695204 0 5 0
2065 1715 24 0 38.03944425507868 17.36356467306316 49.133873409174846 0 4 0
5694 0 24 0 6.538605080808616 23.22740863531743 46.011826918023274 0 0 0
6094 0 24 0 5.887266689534965 26.29983602313144 49.95150805073598 0 0 0
5550 0 24 0 12.423161146136838 25.07554085400382 45.988751880709245 0 0 0
5660 0 24 0 11.194725769939174 28.680664335664424 49.61705217857801 0 0 0
3983 0 24 0 19.19595566447436 24.406910474752248 48.426695834323695 0 8 0
3802 0 24 0 23.93228028028248 24.98024891447177 48.70603253087255 0 8 0
5454 0 24 0 16.894299844620157 28.484440781034092 46.08077255460163 0 0 0
6019 0 24 0 21.321031301682574 28.293361060451506 45.02614061791488 0 0 0
1883 1533 24 0 26.81294904967872 24.40817170072372 43.7972560460179 0 6 0
2007 1657 24 0 29.3216165879884 24.829315145438212 49.61455701417355 0 5 0
2688 2338 24 0 39.361618135486886 21.71006058460009 45.89010028290064 0 3 0
1872 1522 24 0 32.093851623926895 26.6621553468538 45.64573028568185 0 6 0
2136 1786 24 0 33.8637820207005 22.002271344877627 47.17669055047957 0 5 0
2045 1695 24 0 37.101036741083114 26.217271005898102 46.07857762069977 0 4 0
2706 2356 24 0 33.99471275631333 26.511813004125415 50.32481787660682 0 6 0
6166 0 24 0 7.534195564918565 29.071595992472794 46.13467779573181 0 0 0
6254 0 24 0 4.993510607606752 33.430908495424106 46.837770907525346 0 0 0
6008 0 24 0 12.45131501647843 29.547484541643893 44.04875264931092 0 0 0
5464 0 24 0 14.555536892763556 32.00370574680554 48.45550964198795 0 0 0
6152 0 24 0 9.113996032729336 34.29666673056481 43.53148119913874 0 0 0
5926 0 24 0 9.095460501963101 33.243066726199224 49.34448802899663 0 0 0
5704 0 24 0 19.70460574381752 31.74666319232394 49.39838852803598 0 0 0
5485 0 24 0 19.92495304961814 33.56921460386817 44.71810142250392 0 0 0
4983 0 24 0 28.19890639674239 30.16292201094201 43.74216813692395 0 5 0
4702 0 24 0 25.109745447222366 34.545301900753266 47.18413135295635 0 9 0
4142 0 24 0 26.007075840968326 29.448058866721034 48.930313026237634 0 8 0
5118 0 24 0 30.60640418419917 33.56837678431277 47.1225776100799 0 3 0
2873 2523 24 0 37.904683727171225 35.4553230259814 43.45923675576461 0 6 0
2570 2220 24 0 35.248982839780275 30.702343438526338 47.20981214259754 0 5 0
6091 0 24 0 8.07922792144728 0.6976316222674462 52.85874930076811 0 1 0
6028 0 24 0 12.487175200346089 3.2414225702360433 55.95109717325227 0 1 0
5599 0 24 0 11.987516026982 4.832166702766393 50.83185571071186 0 1 0
5758 0 24 0 8.040004148326155 7.124851582252747 52.399449436587396 0 1 0
5699 0 24 0 15.888914194636648 6.35571863795618 54.59923320784436 0 1 0
4398 0 24 0 19.81201106310261 3.4582427450656774 53.64596736362937 0 9 0
4773 0 24 0 23.911644954660257 6.338843879068521 54.19670527368623 0 9 0
5207 0 24 0 28.165401931634847 4.11294404429685 55.89266572277529 0 2 0
3591 0 24 0 27.383725408189594 1.3853894301718945 51.572257443000765 0 7 0
3604 0 24 0 27.81728331718173 6.629377463178056 50.87809337333774 0 9 0
4794 0 24 0 25.392101358417943 0.05874867079745447 56.41523282841969 0 9 0
1878 1528 24 0 33.18764900238566 5.634648760347931 55.09425937179748 0 5 0
2764 2414 24 0 36.902317882120364 2.5798465913783417 52.221481576157856 0 3 0
2858 2508 24 0 35.54782857950292 0.9739430046949751 56.705917388164714 0 5 0
2140 1790 24 0 39.73573369784184 5.882668484583819 55.219817040586825 0 3 0
6071 0 24 0 6.878085280102551 12.352873122975366 53.84448467276816 0 1 0
5741 0 24 0 12.705543142869303 10.78252334837247 52.41484922965029 0 1 0
5595 0 24 0 14.672800569314788 10.441178751667747 57.402401125993826 0 1 0
5878 0 24 0 10.284620041205786 8.030039836348832 56.70464220004102 0 1 0
6147 0 24 0 20.100366735008397 8.892570598617677 56.55704123570336 0 1 0
3702 0 24 0 19.569545286661864 7.655888093596134 50.85102672134197 0 9 0
4502 0 24 0 23.817794028174195 10.753840349886932 52.13750140147305 0 9 0
3922 0 24 0 18.821948751843937 13.017931121988697 51.74776529900883 0 9 0
5068 0 24 0 29.051427040533536 9.610936721640583 55.3564807643869 0 4 0
2735 2385 24 0 24.79645193423345 12.725730662423805 56.6376330794121 0 8 0
2849 2499 24 0 31.749319145502028 13.742275828850103 56.931704992282384 0 6 0
5442 0 24 0 27.850920935558303 14.36373708489516 53.32713963094235 0 0 0
2770 2420 24 0 32.31282650299629 10.392894195832975 51.162793924845 0 4 0
2782 2432 24 0 37.41152919978231 7.859253645295992 51.34712481976314 0 4 0
1898 1548 24 0 35.228641938885424 9.922053620699351 56.80671059489489 0 3 0
2659 2309 24 0 36.203488189701645 13.635529611263276 51.73084910162716 0 4 0
2575 2225 24 0 37.19745909636827 14.294259960304805 57.464601844524985 0 4 0
4299 0 24 0 7.572733383688727 17.295381071382955 56.0169863069618 0 9 0
6227 0 24 0 6.992950377352318 21.263512781936285 52.682916950664044 0 0 0
5443 0 24 0 11.459991318724505 17.090011352814127 51.58879062288766 0 0 0
5593 0 24 0 14.57868174358883 15.244626118899495 55.28592682631558 0 0 0
5632 0 24 0 11.28732083799599 20.957373908366705 55.97536894343468 0 0 0
5598 0 24 0 15.899937986500255 20.26028393243197 56.946337518490175 0 0 0
2571 2221 24 0 19.30380393810522 14.641721804717209 57.027202293595536 0 8 0
5350 0 24 0 17.229873258910214 17.76870519527615 52.60709150489015 0 0 0
2107 1757 24 0 21.100837678874036 19.420439080244936 55.856730249584366 0 8 0
5182 0 24 0 23.239752979417368 15.827228294402781 52.876113932282756 0 2 0
5628 0 24 0 21.56426547030511 21.03616483474172 51.22970269796989 0 0 0
3804 0 24 0 25.709306344224693 18.714288545750026 56.27972756552624 0 8 0
2176 1826 24 0 30.636590192982755 18.783993211280695 55.777513389159154 0 6 0
5002 0 24 0 27.412279091553266 19.00031949361351 52.067755277949466 0 4 0
2910 2560 24 0 31.947231665977153 21.270475673904183 51.61489230722329 0 6 0
2819 2469 24 0 32.07916486909675 16.0754559726994 51.17083822698309 0 6 0
2106 1756 24 0 35.443030920934305 18.4768237307552 54.17261258991369 0 3 0
2187 1837 24 0 39.98227790833909 21.37917836873559 55.582352014704334 0 5 0
5847 0 24 0 6.451961831979247 24.901308705013324 57.42635064718451 0 0 0
5709 0 24 0 10.762577551246732 24.410008101000667 51.64913523138551 0 0 0
3332 0 24 0 15.012779414248792 21.923195864919887 50.93266859118588 0 9 0
5558 0 24 0 13.954487939895749 25.160485366876845 55.781442639828526 0 0 0
5391 0 24 0 21.38221833211055 27.347077247945066 51.82937170378114 0 0 0
5167 0 24 0 18.664775159679206 24.207088581616205 54.92905722582042 0 3 0
5766 0 24 0 16.743987948352142 27.924924564153738 52.008805065562946 0 0 0
2836 2486 24 0 24.97626977245803 23.591128231719384 53.82386881965299 0 8 0
2653 2303 24 0 28.917878912633288 23.0968655208836 57.06347257398003 0 6 0
2783 2433 24 0 31.196617240782963 26.7015099122477 54.57242748309116 0 5 0
2811 2461 24 0 26.765835716906665 28.123556243189913 53.722796575233176 0 8 0
2899 2549 24 0 33.99610621421996 22.314383707537633 57.35310877236006 0 5 0
2777 2427 24 0 37.90661537291148 22.58538869828367 50.448729827084954 0 5 0
2117 1767 24 0 36.95532467971208 25.78658227974578 55.10828406398513 0 5 0
5888 0 24 0 4.163650349823368 30.593370018530507 51.412404993734945 0 0 0
6160 0 24 0 8.271927834712002 29.23037297294465 53.6156462986344 0 0 0
5597 0 24 0 13.530728397702106 31.874485725034326 53.62502253153579 0 0 0
5830 0 24 0 10.720772265227469 35.528792370004126 56.28624799193345 0 0 0
5835 0 24 0 16.31478047701716 35.20493169872318 56.190798159618204 0 0 0
3925 0 24 0 19.51578991999413 31.62154039004734 54.69262022430126 0 9 0
2810 2460 24 0 23.773949146521595 32.31271191377806 52.65140812702469 0 7 0
1946 1596 24 0 22.25113265591244 35.0848909802073 56.5432859251955 0 8 0
2796 2446 24 0 30.523644489128753 29.699932577732536 50.666140769298174 0 6 0
1985 1635 24 0 28.355363993134848 35.09735446940632 51.202420703060966 0 6 0
2581 2231 24 0 27.14934453880188 34.91525738149938 56.59147441521628 0 7 0
3700 0 24 0 38.66718313280915 28.856365679112475 50.52457389478835 0 7 0
2050 1700 24 0 34.78493049884102 30.368599255545263 54.76972222397078 0 5 0
2776 2426 24 0 39.27853964762246 33.55472541074597 52.38672084745389 0 5 0
1854 1504 24 0 33.77911058441791 33.51839137634175 51.165251625069274 0 5 0
2728 2378 24 0 35.91651483599194 34.81313080460744 56.432631778737544 0 5 0
2769 2419 24 0 39.95716104082192 30.59934695775573 57.08042654746918 0 5 0
5836 0 24 0 6.88468243966976 5.449673836297759 64.05865612622642 0 1 0
5828 0 24 0 7.120174169723716 4.09128151747435 57.80655222234907 0 1 0
5368 0 24 0 10.9287776951643 5.211878679609079 60.70231090040273 0 1 0
3291 0 24 0 21.833702468228978 4.695871705429666 58.210223012250275 0 9 0
4523 0 24 0 16.082757995477973 2.6599966475196557 63.23139599595836 0 9 0
3283 0 24 0 21.568186901584898 3.368726063730898 63.19927399720331 0 9 0
5202 0 24 0 17.21008341834053 2.0114794818539017 57.91928314892637 0 2 0
5603 0 24 0 16.281757495297562 6.659664488965759 59.83192013656136 0 1 0
3429 0 24 0 26.07618740131435 3.6761683621474583 60.26680264673078 0 9 0
2033 1683 24 0 27.906672899610896 1.485972839790669 64.67524546544277 0 6 0
4968 0 24 0 30.24588305054607 0.9689465549469358 59.54387459942843 0 5 0
1828 1478 24 0 30.489048505420797 6.2710687325515835 59.675550169661165 0 7 0
5159 0 24 0 28.754136140393808 7.1645156798579945 63.886747935968145 0 3 0
2073 1723 24 0 33.089952394074224 2.8811313403037477 63.03354244054466 0 3 0
2748 2398 24 0 36.31008592123063 5.1440636358269325 59.262480054673674 0 4 0
1960 1610 24 0 38.18429642007595 5.088344655095513 63.7260512838474 0 4 0
5901 0 24 0 6.028560150514858 9.547729783086979 58.32560515759028 0 0 0
5930 0 24 0 7.7749172471477275 10.336677422849855 62.63841000602391 0 1 0
5548 0 24 0 12.30437869875685 9.99790482507112 61.89901689130536 0 1 0
5607 0 24 0 10.333172413738222 12.927387522526082 58.034754900091485 0 0 0
5606 0 24 0 14.815932329396958 14.349818747491117 60.56189611898823 0 0 0
4910 0 24 0 17.479729785218858 8.034723487483385 64.51757667070925 0 9 -1
4907 0 24 0 18.685598577741168 11.726470000992114 60.891717710310104 0 9 0
4528 0 24 0 21.774708393491935 7.999558734694414 63.013075520511904 0 9 0
2863 2513 24 0 25.065425899722054 8.369118421715136 59.21614015776389 0 8 0
1943 1593 24 0 29.917292251001946 11.362982376040632 61.03656675667697 0 4 0
2112 1762 24 0 24.722808948165955 12.116704130197098 62.766027887475886 0 7 0
2173 1823 24 0 34.252844134578034 13.780375424433513 62.032063563370784 0 6 0
2806 2456 24 0 33.934217045216165 8.256098836054797 62.57097056152278 0 7 0
2627 2277 24 0 39.91365178311329 9.381483135159609 59.993481860384605 0 4 0
6231 0 24 0 5.773494419099625 20.66194844571916 60.440604293109025 0 0 0
6074 0 24 0 8.457644908729241 15.154636883641508 63.2458718635614 0 0 0
5780 0 24 0 11.20554857112183 17.71001639740544 60.05823689745504 0 0 0
5643 0 24 0 12.875237245673127 16.783499087845698 64.74310673806654 0 0 0
5981 0 24 0 9.928572786871229 20.915712512644777 64.12246788860149 0 0 0
5287 0 24 0 15.016273408027962 20.69621352692247 62.517945796118234 0 1 0
6229 0 24 0 18.68951059364229 17.44543648188798 61.563561221537555 0 0 0
4473 0 24 0 23.142022126966896 15.955585927642774 60.2615242998638 0 9 0
3470 0 24 0 21.974381249353666 20.884105673270742 64.24541478898533 0 8 0
2654 2304 24 0 25.966580480203206 17.99431510057598 63.88427208714103 0 8 0
2893 2543 24 0 28.335017770211913 15.991084825228278 59.366034310014676 0 8 0
2074 1724 24 0 29.65046543250933 14.948608863641745 64.2380108170462 0 6 0
2012 1662 24 0 29.31490518187368 20.13543817947943 61.019597066343195 0 6 0
2563 2213 24 0 39.230571172624835 14.671905961475538 61.72217656534562 0 5 0
4923 0 24 0 33.85233073841554 17.56124472359474 59.42056911516159 0 5 0
1836 1486 24 0 34.63602844733006 21.139651651524098 64.1289537503952 0 4 0
2613 2263 24 0 38.23342748595006 21.020385627330917 59.98010249838876 0 6 0
5450 0 24 0 11.083326380960012 23.76577430784768 59.94692165019085 0 0 0
5743 0 24 0 15.672716181407932 25.311334585857296 60.5872492098677 0 0 0
5802 0 24 0 8.34822416751992 26.42881066803939 63.53425697445921 0 0 0
2043 1693 24 0 19.400414115732318 22.045157739096073 60.21109855069373 0 8 0
4988 0 24 0 22.290334790549323 25.74634466622065 63.020331330926375 0 5 0
4555 0 24 0 21.550997946636787 26.970715176941393 58.153604509487465 0 8 0
2905 2555 24 0 24.617559658553805 21.742928647186176 59.74362473780422 0 7 0
5077 0 24 0 26.56587693517562 26.52604833302709 60.22402686868488 0 4 0
5005 0 24 0 30.861248555754365 24.8829500808063 63.66075986187049 0 4 0
1892 1542 24 0 39.52194060471983 24.93985748639343 64.50286969889524 0 4 0
1996 1646 24 0 38.19496711869305 26.41491333019492 60.05621626871841 0 5 0
2705 2355 24 0 32.63200590919532 26.887657757089094 59.21195562787466 0 5 0
2887 2537 24 0 35.22528697016242 27.216232152774595 63.90803621417528 0 5 0
5831 0 24 0 7.549653195692806 30.360531468130254 60.975851281189804 0 0 0
5803 0 24 0 9.061683433550378 35.247967931745855 62.15035077829774 0 0 0
5817 0 24 0 11.850837431939258 28.866238121171726 59.21434887233637 0 0 0
5638 0 24 0 10.943915211818897 30.21328190195925 64.64357808159538 0 0 0
5414 0 24 0 13.243230991365841 33.79996558771122 60.02509698158385 0 0 0
5559 0 24 0 16.193253135189263 30.08914487530671 57.6853678106972 0 0 0
5415 0 24 0 18.815013398731242 33.86624948523694 60.27417005265581 0 0 0
4366 0 24 0 17.069419983606984 30.043103053208668 62.78520837670417 0 9 0
4774 0 24 0 22.136424699643413 31.073297136112323 62.35965410042221 0 9 0
2902 2552 24 0 24.846604962056634 30.835438762651528 57.669469910393424 0 7 0
2736 2386 24 0 29.94281073966427 31.274283778067154 57.80781432438795 0 6 0
5127 0 24 0 31.53778573035908 35.74297887463159 59.94159038243723 0 3 0
2843 2493 24 0 26.5982853691905 29.1904536735136 64.16924720073519 0 8 0
2101 1751 24 0 26.755295940450242 33.71938890917708 61.51216513941346 0 7 0
2077 1727 24 0 31.686188018326497 30.004820235919034 63.42881860528137 0 6 0
2761 2411 24 0 39.7383784001426 29.98054766523047 63.36268098945683 0 5 0
2833 2483 24 0 35.4529456124961 35.316632336625645 62.96400497320097 0 5 0
2807 2457 24 0 35.675845225475115 30.796027558493083 60.389453885301926 0 5 0
5832 0 24 0 6.02366561686507 0.008989453726229685 67.64111592081869 0 1 0
5892 0 24 0 3.463471163879344 5.332452525182378 69.95311162892413 0 1 0
5693 0 24 0 11.159035810252197 2.1216835719901623 64.90109422130197 0 1 0
5899 0 24 0 8.299363358147529 3.970175271877623 70.14732528589931 0 1 0
5484 0 24 0 13.055562433086466 2.582231287348841 69.79361005256246 0 1 0
4841 0 24 0 12.341064242662748 7.069308115756494 65.96959625366087 0 9 0
4956 0 24 0 18.266157056685486 1.5697420017313921 68.23881251008237 0 6 0
5551 0 24 0 22.366438087836496 2.9364770114361787 70.29572245175821 0 1 0
5370 0 24 0 16.664022134100307 5.0401273479441215 71.65038502677626 0 1 0
3714 0 24 0 20.66371178526268 6.780530661585317 67.77875518847962 0 9 0
5137 0 24 0 27.353261705089665 1.9441016603842414 69.72470175678536 0 3 -1
1987 1637 24 0 31.98320902387656 1.6157572299445853 68.13302564347697 0 3 0
5026 0 24 0 25.15638519777207 5.231078579572436 66.57438560254458 0 5 0
2028 1678 24 0 31.434360084812408 5.31100435634587 71.17072498337103 0 6 0
5109 0 24 0 26.162754958172904 7.054855739978645 71.94592083232831 0 4 -1
1963 1613 24 0 36.935182750719676 0.8706602084845222 66.20120393021216 0 4 0
2109 1759 24 0 36.676037004761085 3.63245086078232 70.29330344887495 0 4 0
5019 0 24 0 34.684996378045504 6.813595016601847 67.3136579651568 0 4 0
6096 0 24 0 5.391056521058374 13.946107882393266 70.07824298740856 0 0 0
5737 0 24 0 8.294936646484537 9.526800813997276 68.72948228389019 0 0 0
5577 0 24 0 12.418866199943938 7.961978027577822 70.71504489821044 0 1 -1
5453 0 24 0 11.334778641555856 12.145007052314154 66.02956480578327 0 0 0
6065 0 24 0 10.159544062291618 13.244268963390951 71.72147497378367 0 0 0
5261 0 24 0 16.776627505227594 9.960580948672575 69.473806941203 0 1 0
5535 0 24 0 21.531024655393786 11.51083372679384 66.1716779324069 0 1 0
3984 0 24 0 23.63945844407813 11.095009802685167 71.3937056927606 0 9 0
5251 0 24 0 16.014430613995906 13.050865036386515 65.39209546915383 0 1 0
5205 0 24 0 19.340469973932546 14.038490533717336 70.19366678909398 0 2 -1
651 301 24 0 30.246338054121146 10.588936884933116 71.36446658260188 0 7 -1
4206 0 24 0 26.35934185329022 11.00302139648225 67.28717339095546 0 9 0
2743 2393 24 0 31.838154037076716 11.23521733499154 66.47606982534094 0 7 0
2784 2434 24 0 38.23245095951295 9.363472692184645 69.20272144331595 0 5 0
2118 1768 24 0 36.94326699732314 11.31150787678375 65.01869090349462 0 5 0
2037 1687 24 0 34.45844014632783 13.437226024183133 70.2184809409139 0 6 0
5799 0 24 0 4.385419546453669 21.262458155632054 65.52959871248052 0 0 0
6115 0 24 0 5.362014025571349 19.40906164023201 71.99131607041258 0 0 0
5402 0 24 0 13.873164604362163 15.226552244946598 69.16405248861487 0 1 -1
5822 0 24 0 9.111432054777703 16.833428856436722 68.38536317473354 0 0 0
5549 0 24 0 12.958032464248397 20.239832757877632 68.46437786127785 0 0 0
5767 0 24 0 21.559538313817725 16.381011665886998 65.47389182095391 0 0 0
3338 0 24 0 20.439772867533716 19.31471432016243 70.27340924276866 0 9 0
5316 0 24 0 17.246898811661655 18.817721458013246 66.66442694314237 0 1 0
4005 0 24 0 24.036617645875562 15.488807433744874 69.45486202829538 0 9 0
2732 2382 24 0 24.911834476549338 20.424430533675363 68.28347619847224 0 7 0
1841 1491 24 0 30.2902146111034 15.683099894105078 69.24649580931623 0 6 0
2113 1763 24 0 29.971586631387797 19.819563884511826 66.04732981277995 0 6 0
1829 1479 24 0 39.11775590430788 19.751554415702685 65.63756116995265 0 4 0
552 202 24 0 37.992863619400154 16.72439645871492 70.29027153817744 0 4 -1
2908 2558 24 0 35.141095581264366 16.306575696838213 65.92729200071264 0 5 0
2872 2522 24 0 32.77705800084443 19.627461819921944 70.5167123849038 0 7 0
630 280 24 0 38.16384516554847 21.416810378498823 70.095451693075 0 4 -1
6145 0 24 0 4.434105630002004 25.68413056653104 70.54489678876351 0 0 0
6159 0 24 0 8.2804582460609 22.77939920890495 68.37297007142621 0 0 0
5491 0 24 0 13.076319008444026 24.815366941034018 64.84232186587606 0 0 0
5809 0 24 0 11.166588940824491 27.92347101576012 68.83395033502282 0 0 0
4011 0 24 0 18.153014934538827 24.542475131493823 65.13835404153728 0 9 -1
5380 0 24 0 16.81429301740582 23.750620709553996 70.56093862937277 0 0 0
4088 0 24 0 21.55737949716833 24.336899951889787 69.12219477679152 0 9 0
4319 0 24 0 16.465942121560744 28.75639440774331 67.9100645256376 0 9 0
2775 2425 24 0 21.275682931149152 28.526443242086422 66.68502889193395 0 8 0
4937 0 24 0 29.954092831606207 27.778491605606664 67.82725234465525 0 5 0
2669 2319 24 0 26.328877910831423 23.18369174717053 64.96086824227092 0 7 0
1821 1471 24 0 29.209891248564684 23.15429857868134 70.01267807517719 0 7 0
5235 0 24 0 25.36921767521509 27.136388476595027 69.79464323979936 0 1 0
1422 1072 24 0 33.82313605657996 28.706432509017052 71.14316506511891 0 7 -1
2058 1708 24 0 33.78137919351671 24.09044422420581 67.86809987363297 0 4 0
5811 0 24 0 4.379365849030078 34.307938228760314 70.38687355194703 0 0 0
6029 0 24 0 5.699992482060607 30.88096104343507 66.12751457066135 0 0 0
5739 0 24 0 13.535207719605271 35.81454822229661 70.20000090979485 0 0 0
5562 0 24 0 8.854610817982255 34.01063765116309 67.84510282355632 0 0 0
5609 0 24 0 15.168640282212724 34.200575744355376 65.07453970700203 0 0 0
4998 0 24 0 22.93881068059715 31.414857513038108 70.68496259668687 0 5 0
5383 0 24 0 19.651162323830803 33.50053787453099 66.19508094064753 0 0 0
3327 0 24 0 17.73494803473027 32.80169072044437 70.8944547478891 0 9 0
5014 0 24 0 28.946895494515243 32.01285211963418 70.10897308283423 0 4 0
2569 2219 24 0 25.153708714894176 33.740370952529176 66.12838644618974 0 8 0
2765 2415 24 0 30.152973817334644 34.73856816798182 65.45301725893643 0 5 0
1999 1649 24 0 36.05824752491842 34.86143702573921 70.79042434220982 0 6 0
2137 1787 24 0 37.51912642441025 29.107811173839664 67.85330092365906 0 4 0
1899 1549 24 0 33.77068225925031 32.50994181430787 67.18128449622375 0 4 0
6093 0 24 0 6.974058942154187 40.70047164410949 5.97567970450765 0 0 0
6208 0 24 0 4.588497043988974 39.99156936285759 0.6560275843687879 0 0 0
5728 0 24 0 11.670549242310289 38.70094595816109 6.2973459974177874 0 0 1
5571 0 24 0 14.541468532161222 40.86145735237394 1.2015409181843262 0 0 1
5854 0 24 0 9.525124798862924 42.080954854986985 2.266816674642077 0 0 1
4210 0 24 0 20.239874548725155 36.98863573898441 6.670135518647716 0 9 0
4249 0 24 0 19.26713429199363 41.889347220018195 3.9865163670348767 0 9 0
4189 0 24 0 23.864416114048733 40.26698144518895 0.47109337862850453 0 9 1
1273 923 24 0 31.16909541094011 41.49776632565178 7.079027709805578 0 7 0
4463 0 24 0 29.369516120287802 40.09177873101391 1.872018566861249 0 9 0
3986 0 24 0 31.0884364165367 36.54824457086797 6.6823866925442 0 9 0
3990 0 24 0 24.541418830431542 37.44414412911927 4.549238951479923 0 9 0
423 73 24 0 26.659564399752522 43.06922703155719 4.71438035877138 0 7 0
1441 1091 24 0 35.78147274781779 42.97377469375436 5.142520924715231 0 5 0
500 150 24 0 34.01921634000749 39.72164688841328 1.5683766344426158 0 6 0
2708 2358 24 0 38.709728282931245 38.64710784929859 0.6285945766840597 0 5 1
711 361 24 0 39.61095769553706 39.559499911272916 5.768117629405478 0 3 0
5864 0 24 0 8.272928949629515 45.74484196911247 6.262682653547358 0 0 0
5617 0 24 0 13.507578762713832 44.195037861002966 5.00665908876674 0 0 0
5666 0 24 0 9.909183890924847 48.41467542122948 1.724087463215317 0 0 0
5520 0 24 0 15.003260046839872 50.328223412369304 4.878500507968164 0 0 0
3292 0 24 0 22.805626632435374 44.59780028739461 1.33334199977494 0 8 0
3426 0 24 0 21.83763081624946 45.68513912050601 6.157850911869155 0 8 0
5301 0 24 0 18.188822712992398 46.816744586920755 3.2916696539506147 0 0 0
3826 0 24 0 22.335150762296944 49.792362094772095 3.7070431732844957 0 9 0
4434 0 24 0 31.82305443980548 44.978452432233325 2.512945225861135 0 8 0
4083 0 24 0 26.94117318111013 47.495797788958306 3.1011690587348375 0 7 0
3329 0 24 0 30.51723755499029 50.36658633501462 3.990271748792215 0 8 0
1252 902 24 0 38.84738554398041 46.47831993893831 4.185876109719488 0 6 0
608 258 24 0 34.44320690988976 48.587799521270746 5.346164745152049 0 7 0
703 353 24 0 35.349912531818966 49.30785855918202 0.6517421958870763 0 5 0
374 24 24 0 36.94426803869952 43.617173566691086 0.044825734591663044 0 5 0
5992 0 24 0 7.0326325596291035 50.74080221805575 5.764785062789402 0 0 0
5738 0 24 0 7.335954919635804 52.47847788377389 0.8343241754525196 0 0 1
5838 0 24 0 11.201124351765067 53.53236809613788 4.808545847172016 0 0 0
5374 0 24 0 15.777538357318413 55.08041193386314 5.370431464141747 0 0 0
5580 0 24 0 13.051850284208282 52.34433298871742 0.16223523780387716 0 0 0
6023 0 24 0 8.402170614751812 57.13753444007557 3.114131787908542 0 0 0
5419 0 24 0 17.832049915220203 51.361132282428265 0.7133124447642712 0 0 1
3788 0 24 0 20.689121111133844 54.297614100682594 3.7585566630894687 0 8 0
1375 1025 24 0 25.99452730944498 53.67163302717757 4.887146233417512 0 7 0
515 165 24 0 28.879355522163944 53.42212015268775 0.2749169023092859 0 5 0
4903 0 24 0 24.028163045491752 53.166774911483174 0.26376981539170213 0 7 1
689 339 24 0 32.33087289122064 54.22370355373372 6.468939382852667 0 5 0
737 387 24 0 35.85765451760894 54.250390052006054 1.0290647550706256 0 5 0
1118 768 24 0 38.822638070729255 51.12009627919833 3.4678230943183084 0 3 0
6100 0 24 0 4.268895168329271 60.08854242366877 3.658321546867054 0 0 0
5613 0 24 0 12.923307413519064 58.25629030626409 2.4256161872948314 0 0 0
5882 0 24 0 8.451682027815108 63.28109632784541 6.382254196814022 0 0 0
5586 0 24 0 13.072366559760082 63.60589117468774 4.969384492944155 0 0 0
5629 0 24 0 11.24803741350608 58.94683340968624 6.823022045499829 0 0 0
5274 0 24 0 9.132085562571099 61.189277386029346 0.1284553064863741 0 0 0
5903 0 24 0 14.930045592968847 62.298503334514024 0.6017198322328038 0 0 1
1852 1502 24 0 17.97028377371989 59.219733549589215 2.88832909071213 0 7 1
565 215 24 0 22.753607294885114 58.812413051472426 4.972601250139267 0 7 0
3911 0 24 0 19.382260522888384 63.580633630031194 4.752869252343501 0 8 0
4628 0 24 0 21.96370786261739 62.416872050969054 0.8004470476225622 0 8 0
537 187 24 0 27.98984272411332 58.041512519578745 4.6774410897829135 0 5 0
1167 817 24 0 31.848143339369084 58.203172734825934 1.1631898034745127 0 6 0
623 273 24 0 26.86850007881296 62.894330032203435 0.859338810646951 0 5 0
1106 756 24 0 25.47339767456307 62.643068412801426 6.392282648208598 0 6 0
664 314 24 0 32.17963106464656 59.61370162676787 7.167322810357099 0 5 0
4999 0 24 0 32.098025767832 63.04476006164817 3.2609869926004627 0 4 0
1138 788 24 0 36.02375816326671 58.097337603675314 4.1846594841638 0 6 0
675 325 24 0 38.84685097652241 62.00744203984817 1.3841596106218215 0 2 0
6076 0 24 0 10.204749511862063 68.38746633618807 4.9745489987508655 0 0 0
5362 0 24 0 15.902400019499444 67.05641740436066 3.103283523679289 0 0 0
5898 0 24 0 10.908601999477751 66.06644912078255 0.9020395164911159 0 0 0
6033 0 24 0 13.958074150424743 71.2687125988195 5.052362594430184 0 0 0
5757 0 24 0 10.35052999854253 71.1157964141475 0.8265655580583291 0 0 0
544 194 24 0 16.273243993425343 71.36555164378494 0.35415303906561824 0 7 0
5379 0 24 0 23.451057626611444 66.47067249970327 3.3507819639247596 0 0 0
3694 0 24 0 21.241871814971798 70.55342434895203 5.6702539253892965 0 8 0
1156 806 24 0 26.135918461964398 71.66257085702055 6.425795154843006 0 6 0
1450 1100 24 0 27.959846418259062 66.96809764790474 5.770617270504678 0 7 0
1345 995 24 0 29.500822075620075 67.07828534515326 0.716232135917694 0 6 0
1146 796 24 0 30.93324855139999 70.72661798738297 5.181370623535821 0 6 0
2564 2214 24 0 26.111425527339776 71.0783540994766 1.0989168080542688 0 6 1
5119 0 24 0 35.01717239791756 66.6223009406631 0.6527499781181688 0 3 0
1231 881 24 0 35.62585716816764 70.87298221810401 4.987009019584229 0 5 0
578 228 24 0 39.27657991490623 67.85215575724658 1.9035721582558731 0 3 0
6022 0 24 0 7.611389417844008 38.945910776425215 10.769520653282651 0 0 0
6146 0 24 0 3.2029526191955076 38.367701982655895 13.041541476193272 0 0 0
5624 0 24 0 12.338575696854061 37.542410346077546 11.148898435834267 0 0 0
5552 0 24 0 15.888342215244304 41.4936366143863 8.513196507829695 0 0 0
5861 0 24 0 10.763779978761892 42.61545422952722 9.344632971404895 0 0 0
4431 0 24 0 21.403164916787624 37.533579129676625 11.301462194883193 0 9 0
5333 0 24 0 21.148613122841276 42.09329740759561 9.72026397098563 0 0 0
5564 0 24 0 16.45728556292727 40.37377718327381 12.940834808068884 0 0 0
5204 0 24 0 25.180989562369057 40.25694780522904 13.68493672549962 0 1 0
5142 0 24 0 26.393898284746374 39.442677648380396 9.003392932410556 0 3 0
5345 0 24 0 31.303849570388092 38.490979708189364 11.337714382926 0 0 0
729 379 24 0 29.051957955832766 42.84055187134169 11.966695884447375 0 6 0
1314 964 24 0 35.26353271892906 39.03097228204137 8.009730981578747 0 6 0
457 107 24 0 36.61874741439118 38.81162039183816 13.19591371952079 0 5 0
5991 0 24 0 7.365881961323802 46.27468995435273 11.126541245558881 0 0 0
5775 0 24 0 11.822104764573714 48.26155443991708 8.863033703041683 0 0 0
5801 0 24 0 11.982540546221564 47.4239262838179 14.110844923098771 0 0 0
5804 0 24 0 16.2804749271483 44.99411437077874 12.630661244647673 0 0 0
5448 0 24 0 16.928094970560714 46.506092027784 8.024556945066578 0 0 0
1197 847 24 0 20.54263910343569 47.03191711353922 11.351327072050891 0 8 0
3784 0 24 0 25.334739689781756 44.79034297454178 9.384760200472593 0 8 0
674 324 24 0 30.44644929570054 46.09136337659502 8.01839588792816 0 7 0
523 173 24 0 28.135927457590533 48.62864066010794 13.05022432012586 0 6 0
5521 0 24 0 24.389378372763804 50.18282998144764 8.496330850436161 0 0 0
1393 1043 24 0 36.0499351787346 43.28170246567307 9.985249611762917 0 5 0
499 149 24 0 37.74765616874107 48.06065844278118 9.638900525009289 0 3 0
413 63 24 0 32.629117882168984 46.79657608504389 13.071978897135665 0 5 0
657 307 24 0 36.609455953153585 49.95264272729723 13.782892833416799 0 2 0
6063 0 24 0 6.868132601593299 56.73727325009202 7.897873993807451 0 0 0
5964 0 24 0 8.332250436019505 51.48723038478943 11.008211857760848 0 0 0
3924 0 24 0 15.709397422086722 50.5628167095408 10.824426223557406 0 8 0
5591 0 24 0 12.645508237575648 54.60229403341253 9.469397726663823 0 0 0
5944 0 24 0 9.231516859931348 57.01972827511281 12.207530578765363 0 0 0
5258 0 24 0 19.506076729621512 50.62189567996575 7.597351858372597 0 0 0
5323 0 24 0 21.47318909839126 52.10542049450144 12.111377575080098 0 0 0
3594 0 24 0 18.165595540349447 55.53825809169145 9.625421566603725 0 8 0
4920 0 24 0 23.095245325568577 55.49382290074557 8.61368791023865 0 5 0
4967 0 24 0 22.083193357837633 57.28089716469097 13.416404418724523 0 5 0
376 26 24 0 28.697231418502092 51.462823086984564 8.409938364534357 0 5 0
5372 0 24 0 27.1671365715686 53.940141889033946 11.990222375881899 0 0 0
683 333 24 0 31.346337180320273 56.13375017794284 11.144763654684787 0 5 0
671 321 24 0 37.042475823271374 53.31309809377786 7.6981761896243555 0 5 0
397 47 24 0 33.30374321118798 50.56321287142167 9.990581140404808 0 4 0
1188 838 24 0 36.25438257240562 54.73926463504368 12.445782396105498 0 4 0
6178 0 24 0 2.390648048467451 59.343157947568386 8.846073777620028 0 0 0
6123 0 24 0 7.6850826080495676 61.435215784877535 11.41577472577944 0 0 0
6034 0 24 0 14.419397296743895 58.28223486735006 12.179221612068213 0 0 0
5917 0 24 0 13.082868121651764 63.36971247710845 10.485968078879933 0 0 0
5770 0 24 0 16.15646381548768 61.13090977274333 7.508517176685798 0 0 0
3439 0 24 0 21.951706444020807 61.11680943042484 9.82485650797693 0 8 0
5181 0 24 0 27.150052207393813 58.050596352817315 9.55386427438842 0 2 0
455 105 24 0 25.47948710374028 60.191499263129984 13.994193533260503 0 6 0
560 210 24 0 30.756063248944802 60.88007061451443 11.86426820733201 0 5 0
1284 934 24 0 26.93184596236489 64.29509728688826 11.003270316876542 0 7 0
5456 0 24 0 36.46632857016868 63.824122472549114 7.3132053490438835 0 0 0
1415 1065 24 0 35.827282248022286 58.43458176417096 9.545331873972087 0 4 0
1426 1076 24 0 35.87697561879609 63.363468945326126 12.271408825410925 0 3 0
5972 0 24 0 15.974743316373539 69.84651261139196 13.497969979746951 0 0 0
5790 0 24 0 11.85001639377919 67.12350724928523 14.068572196343364 0 0 0
5523 0 24 0 12.701774862544 68.05985102146121 9.464672741210967 0 0 0
5339 0 24 0 17.344717694632273 67.02737737265282 8.265506621717632 0 0 0
5240 0 24 0 22.36318333754612 66.50141827916089 8.441855066423347 0 1 0
5519 0 24 0 19.787994567685477 67.22612830693991 12.812611478330417 0 0 0
1202 852 24 0 31.574569970036592 64.8545278256385 8.065032294836659 0 6 0
5286 0 24 0 24.79105581077299 69.13234945812475 11.481778012217207 0 0 0
495 145 24 0 31.779112895262244 65.39585134796027 13.443923121502438 0 6 0
3915 0 24 0 29.426562035750496 69.0889553701733 9.765805793477604 0 8 0
5173 0 24 0 34.390806802804256 69.17246760833537 9.276589514272747 0 1 0
1456 1106 24 0 38.00719311414324 68.94926144638431 13.286150060480066 0 5 0
470 120 24 0 39.30045428503859 68.70716584920223 8.481341746746326 0 2 0
6182 0 24 0 7.814476416985602 38.22667249758616 15.688624094652337 0 0 0
6082 0 24 0 6.372270397139149 42.653193336916885 14.828009677089272 0 0 0
5857 0 24 0 11.118846847476174 42.43086157562968 14.409401065020562 0 0 0
6135 0 24 0 8.636222235837945 39.87134484549307 20.275074300017636 0 0 0
5625 0 24 0 12.636528254216014 38.38984923597254 17.121942898740418 0 0 0
5800 0 24 0 12.75327393537398 42.43932402102767 21.556439435713802 0 0 0
5531 0 24 0 12.708264944034926 36.201233270121335 21.211115530652016 0 0 0
5327 0 24 0 19.05013508476663 36.34957112954026 16.14159590747088 0 0 0
4721 0 24 0 20.933390413529505 40.83476340863261 15.53901086502956 0 7 0
5514 0 24 0 16.703822884090375 39.41386474167556 19.38416076832216 0 0 0
4315 0 24 0 23.616447699191802 37.388606461536234 18.142439988939692 0 9 0
5062 0 24 0 28.570818796367426 40.6339854472213 17.975948308820676 0 4 0
5001 0 24 0 24.52416638074685 42.38411538261859 18.848820798545898 0 4 0
393 43 24 0 38.694578100710906 36.266323439752725 17.38475627006092 0 5 0
557 207 24 0 33.289898890733774 42.12137941353028 14.426335686591143 0 6 0
1179 829 24 0 38.53930361524117 41.36707907822724 17.149848165993376 0 7 0
1131 781 24 0 33.509760872211125 38.073135804627384 18.198160229262015 0 5 0
5065 0 24 0 34.09409913704447 42.90396660870383 19.270260108305212 0 4 0
6180 0 24 0 5.193946105525982 44.58629307803096 20.156639982159657 0 0 0
5528 0 24 0 15.136744475331474 45.095361012166784 17.712232448884656 0 0 0
5937 0 24 0 9.93603425534464 45.36014912223515 18.571558932869287 0 0 0
5918 0 24 0 8.183170421701005 50.19136647408688 16.705154126200604 0 0 0
5839 0 24 0 13.349372035048848 49.73302364109791 19.77256649633559 0 0 0
3697 0 24 0 20.03381307446873 43.973641038701956 18.51265866992714 0 9 0
5334 0 24 0 18.162221122108345 48.312695758443994 20.601315341702385 0 0 0
3330 0 24 0 21.794351471150037 48.54706546086026 16.547683086187664 0 9 0
4728 0 24 0 16.689441303537485 49.51378417166923 15.806342738670477 0 9 0
4753 0 24 0 24.074842813983036 44.76232127657674 14.431256137655172 0 8 0
3995 0 24 0 28.456365454317464 45.54630010566655 16.79358057698803 0 8 0
5225 0 24 0 25.96271713397488 47.74801839537413 20.006452506999786 0 1 0
587 237 24 0 36.94438661002804 45.58450102721587 15.888563825032886 0 5 0
1258 908 24 0 39.20038584186255 46.04382240590706 20.230129570674567 0 3 0
5392 0 24 0 33.56807228300632 49.01872723438823 18.90380361549127 0 0 0
6209 0 24 0 4.0966346623886265 50.745605017345696 21.04110207720827 0 0 0
5994 0 24 0 6.011830216556095 56.11776166294569 16.95579516396597 0 0 0
5509 0 24 0 12.40631259098547 52.256725112382895 14.611646899813707 0 0 0
6010 0 24 0 9.300284630018744 53.3520673146025 20.015458510568646 0 0 0
5444 0 24 0 15.354707189526462 54.84929589011533 20.197701443051002 0 0 0
5742 0 24 0 11.39617591839277 56.78206484880824 16.857451903646215 0 0 0
4496 0 24 0 16.928110270359994 54.35445912840539 14.961655525781644 0 8 0
5275 0 24 0 20.518711829866234 52.893931847590515 18.680845670179256 0 0 0
4573 0 24 0 24.45479389384076 52.72021666763849 16.121719955261234 0 7 0
5346 0 24 0 28.795635927329787 51.764932684707304 18.587549410202698 0 0 0
4992 0 24 0 24.618648478527856 57.475392570854396 17.787743150731213 0 4 0
471 121 24 0 29.126125133428516 56.625362361676814 15.739459439597866 0 5 0
5259 0 24 0 32.02873306372759 52.0880853664205 14.699353469628656 0 0 0
670 320 24 0 39.9167712757999 54.640912718743465 16.087772490607872 0 2 0
1387 1037 24 0 38.30774895014043 51.53693267742509 20.03596952743834 0 2 0
5330 0 24 0 35.0274141605324 54.13707545784335 17.85389867611469 0 0 0
5922 0 24 0 6.1458343166393545 60.6972218315031 19.08450212398106 0 0 0
5876 0 24 0 10.60889535004172 61.90710523042831 15.845173370722934 0 0 0
5697 0 24 0 14.190875599578089 60.04633535441059 19.520037019706486 0 0 0
3796 0 24 0 21.043652975269612 62.16948784942454 14.768454657943533 0 8 0
5756 0 24 0 16.29611866016462 64.13865126562588 14.423317255351403 0 0 0
5727 0 24 0 20.701558542284175 58.05603012873188 20.630547423853866 0 0 0
3829 0 24 0 17.717798376595116 59.07875857830432 16.31154788723767 0 8 0
4062 0 24 0 23.61217956913635 62.369764394381185 18.57617385170764 0 8 0
5413 0 24 0 18.67742082657628 63.52865008422356 19.41123116161033 0 0 0
676 326 24 0 29.06965571016046 57.935416679344804 20.456353496085967 0 7 0
4527 0 24 0 30.109801999324798 61.39473346269542 16.907585732954 0 7 0
1414 1064 24 0 34.52553787571408 58.824968121133935 19.857995944997068 0 5 0
728 378 24 0 39.38397261239724 61.08768729561584 14.883691052390141 0 4 0
1107 757 24 0 34.22753500084167 58.97589054936139 14.998887867903548 0 5 0
1226 876 24 0 36.15845090551478 63.4250163771121 17.846014029957193 0 6 0
597 247 24 0 39.80092367090646 64.37600774170755 21.377473164434022 0 5 0
5773 0 24 0 4.255656231794498 65.78299642930331 18.429815745104015 0 0 0
6191 0 24 0 13.787286649025862 64.97554138517313 18.54571064306241 0 0 0
5784 0 24 0 12.63045158933774 69.34130198679286 21.513986245522165 0 0 0
5837 0 24 0 8.964170504436748 68.23615498307643 18.229023041569345 0 0 0
5534 0 24 0 20.970431684443685 71.24719991557174 21.446674106631985 0 0 0
5783 0 24 0 17.478534317601355 68.05483858672235 18.76557264026557 0 0 0
4996 0 24 0 22.45085326572765 67.2304628795988 17.95981236589036 0 4 0
3323 0 24 0 26.542942513754074 65.09149208695676 15.904590107906476 0 8 0
1351 1001 24 0 31.043228785639744 66.19229720108082 18.216091765885643 0 6 0
4973 0 24 0 27.03570036811772 70.34827111810122 19.413020277535477 0 4 0
5004 0 24 0 29.073885327232357 69.66842978642732 14.97328216366608 0 4 0
1347 997 24 0 26.976969694581136 65.24984735995197 21.10095074310684 0 6 0
1369 1019 24 0 34.883900719978264 68.71154078155402 17.577167296106033 0 6 0
1132 782 24 0 38.899121669983714 69.10877153957894 21.35237947457062 0 4 0
6232 0 24 0 4.965232515402274 40.168110107435425 23.528267527454755 0 0 0
5900 0 24 0 6.655106400400002 42.950375954237415 28.228006767885034 0 0 0
5894 0 24 0 9.673776697006662 39.30568199038733 25.879856292955306 0 0 0
5305 0 24 0 14.512170663971837 39.14148337210419 24.761071912619308 0 0 0
5721 0 24 0 13.366914347110995 42.846221208882874 27.21947546216945 0 0 0
5326 0 24 0 21.128460087085088 40.09788979128032 22.187222717479347 0 0 0
5461 0 24 0 18.51290642258084 38.302315727696985 27.768232307695147 0 0 0
3992 0 24 0 29.693813034206695 37.691010293612074 21.78227273875468 0 9 0
4268 0 24 0 25.584086031181716 40.47036007291951 24.09695069030744 0 8 0
4498 0 24 0 30.10634917079481 40.30472816929413 27.512848264586253 0 9 0
634 284 24 0 32.44880058542084 41.217043776401695 23.543025261533543 0 8 0
3577 0 24 0 36.79647099169732 39.63589713461253 21.615334244083744 0 8 0
5277 0 24 0 35.43008990934532 40.441413762391264 27.537476680147453 0 0 0
5264 0 24 0 33.46729673779172 36.3027035014088 25.309239130116453 0 1 0
1294 944 24 0 39.06203892793229 42.6927823752413 24.477612857911375 0 5 0
580 230 24 0 38.698278288355475 36.71400167725221 24.997198574088316 0 5 0
6177 0 24 0 5.974514214662091 47.555164278288416 25.917178269115993 0 0 0
6121 0 24 0 8.603402788673309 48.68982962925111 22.264966870892657 0 0 0
5806 0 24 0 8.719972164564767 44.00886221202074 23.98376214386824 0 0 0
6072 0 24 0 13.659960307737316 46.90225424220407 24.347405394181834 0 0 0
5956 0 24 0 17.649839153883303 43.74021527748223 23.77596690927327 0 0 0
3423 0 24 0 22.219709133703265 43.274463249364985 26.585200760896107 0 8 0
5171 0 24 0 22.419977203150427 45.702681997057034 22.413754485018092 0 2 0
5702 0 24 0 18.85906231426501 48.3283285572627 26.27728172047354 0 0 0
4715 0 24 0 30.336136533157905 48.49301659514133 22.384041464564508 0 9 0
4578 0 24 0 28.73327333963124 43.35484148208545 21.861308087442183 0 8 0
5112 0 24 0 31.053107437205988 45.835787223891764 26.77443897622217 0 3 0
4533 0 24 0 26.50907220151732 46.15491181542862 25.33617245202884 0 9 0
5332 0 24 0 34.95494760305139 45.297617152173906 23.097628054128336 0 0 0
3722 0 24 0 36.354333164763766 45.310988999930586 28.003947229805256 0 8 0
6228 0 24 0 3.9910853716717347 56.35258983734378 23.987899140491557 0 0 0
5959 0 24 0 11.837450469508138 50.98623894159903 26.36164309916881 0 0 0
5924 0 24 0 9.789876311182983 55.53075752043597 25.692622470754408 0 0 0
6009 0 24 0 14.654328804504058 56.449040895728984 24.606307586471544 0 0 0
5763 0 24 0 16.416420661782013 51.98821245173486 23.87653020075576 0 0 0
5338 0 24 0 22.315633822002297 50.54347469562748 22.764999794905865 0 0 0
5566 0 24 0 22.462555881774183 51.59462000603453 28.247688509599623 0 0 0
5329 0 24 0 20.00812831685854 55.2441428209686 24.556165606194988 0 0 0
3554 0 24 0 23.952918883958247 56.760165577314766 27.49378250978581 0 9 0
4085 0 24 0 26.666410102795027 52.37863636502674 26.063505182824724 0 9 0
3468 0 24 0 31.389812274357464 50.76341966012698 26.861664099069365 0 8 0
4557 0 24 0 25.583813642663372 55.27716278921354 22.389978617754508 0 8 0
4429 0 24 0 28.96233139506176 56.96371661910113 25.504061020726045 0 8 0
4265 0 24 0 31.804828871856007 53.90604837397749 22.369651172904028 0 8 0
1404 1054 24 0 35.69346123059758 51.74965227984371 24.346720120781853 0 2 0
5189 0 24 0 33.71876728390232 55.290454230535204 26.896946684860467 0 1 0
636 286 24 0 37.36392189651112 56.15775575358528 22.555775289394425 0 1 0
629 279 24 0 37.94587186860324 57.52743049001578 27.439726848875097 0 5 0
5823 0 24 0 6.160220506425157 62.030834494088396 24.02143555564723 0 0 0
6148 0 24 0 6.284501763348144 58.8294766445968 28.456404810231163 0 0 0
6122 0 24 0 9.814957986805963 63.63455460517519 21.640700511947383 0 0 0
5614 0 24 0 9.793954635765932 58.28321634058636 21.772412400214208 0 0 0
5762 0 24 0 12.19248653165171 60.26563643250596 26.922246782613357 0 0 0
5612 0 24 0 16.768877947053493 60.99343390148128 24.23063946604806 0 0 0
5296 0 24 0 18.84163073003811 58.728796251003835 28.342990218127042 0 0 0
5349 0 24 0 21.770450517235137 61.917040721598106 24.123697041124256 0 0 0
4553 0 24 0 26.5289414509631 60.95983114663098 23.865094556780527 0 8 0
662 312 24 0 30.295627137066134 64.44101802871715 25.899291811789585 0 6 0
5174 0 24 0 32.01538412267889 60.31398921574152 23.590102440265984 0 2 0
4433 0 24 0 36.53642887982301 61.44516182578374 24.320741644570955 0 7 0
1289 939 24 0 33.26823550041903 60.787386388189994 28.405664715403187 0 6 0
6187 0 24 0 8.292097384418842 68.26312727921334 24.07315386538798 0 0 0
5565 0 24 0 14.816073172224268 70.80874552225164 26.866588206436905 0 0 0
5658 0 24 0 12.49430103688473 65.40451269400852 25.678457415062883 0 0 0
4911 0 24 0 19.98934398100971 65.30582201383584 28.036080280883 0 9 0
5539 0 24 0 17.05069662477736 66.57989794408262 23.673910436782545 0 0 0
4075 0 24 0 22.03992244646185 66.59301658323824 22.57742008504146 0 8 0
4918 0 24 0 19.508095670427412 70.09156263805298 26.106174506112666 0 5 0
5138 0 24 0 25.082968611732905 65.22943347947847 26.904327706726992 0 3 0
5040 0 24 0 25.689377978116056 69.45682413821112 24.014399605311674 0 4 0
5208 0 24 0 30.441153129780652 68.91362358743892 22.6814276682852 0 1 0
414 64 24 0 28.90144633585556 69.13339140528038 28.03775609622921 0 6 0
5057 0 24 0 34.644339190223775 71.58538554354355 22.050169834356954 0 3 0
5006 0 24 0 34.57960203903231 66.40007927586925 23.26448647872393 0 4 0
589 239 24 0 33.42262058875732 69.90252595658926 26.540072514536146 0 6 0
1232 882 24 0 39.141145712331536 66.47216519237257 25.610548694255243 0 3 0
667 317 24 0 38.25922601865736 71.77040748152346 26.80530594628717 0 6 0
6153 0 24 0 6.568052246758326 36.821556760728036 35.419182484421995 0 0 0
5649 0 24 0 12.327175229010638 36.49634352286284 28.95683025518783 0 0 0
5820 0 24 0 8.99505161778774 39.18648495102586 31.00063140482942 0 0 0
5829 0 24 0 14.72902797412234 40.23629835753286 31.99487649174216 0 0 0
5877 0 24 0 12.21600998885397 36.23384897471122 33.58968807085792 0 0 0
5761 0 24 0 10.72850046709754 40.15063871001524 35.7125941880838 0 0 0
5318 0 24 0 20.376327245563417 36.151831616086035 34.805546847918826 0 0 0
5381 0 24 0 23.833180145347427 38.15615520360547 28.896836001158228 0 0 0
5133 0 24 0 20.292687727114274 40.88469391769886 32.27306732579676 0 3 0
5200 0 24 0 24.353900821344975 38.39500507740737 33.78410313384225 0 1 0
3475 0 24 0 28.405285989432056 36.59904057668195 30.50721531872857 0 8 0
5219 0 24 0 28.439707943012465 41.06174040373458 34.3745963216703 0 1 0
4709 0 24 0 26.36087392149191 42.78445713746572 30.26169472377737 0 9 0
2597 2247 24 0 36.0050194854452 42.90346788006132 35.92664725055457 0 6 0
2021 1671 24 0 37.75460812933161 38.31000561956459 35.39011319614992 0 1 0
1430 1080 24 0 32.65208263407728 38.85214106331361 35.84862363205085 0 6 0
379 29 24 0 37.79439067579763 41.71854484845493 31.486036706996238 0 7 0
1116 766 24 0 33.30418340802089 38.31519727890953 31.147043472969838 0 8 0
701 351 24 0 33.0883054267644 43.136097949688356 31.57868135875934 0 6 0
6079 0 24 0 10.298120180775394 46.71940049855859 28.80514977411719 0 0 0
5858 0 24 0 11.208504205135913 43.87837723185366 32.34673693916322 0 0 0
5885 0 24 0 11.63090272162203 48.9411385292793 33.062901269139786 0 0 0
5920 0 24 0 15.058425321847771 47.06194056627487 30.186713436344334 0 0 0
5237 0 24 0 17.958029839871433 43.22488254218529 29.100655126299312 0 1 0
5569 0 24 0 23.745201953876478 43.48489888338258 34.52280837240322 0 0 0
4759 0 24 0 18.37892674480038 44.80427187352911 33.911170136940164 0 8 0
4556 0 24 0 21.802795891682706 46.53272632850169 30.94694703196377 0 8 0
5647 0 24 0 20.448334519630343 50.220092371701426 34.135414611510825 0 0 0
4061 0 24 0 29.385423768660683 45.753332991986696 34.94783185794062 0 9 0
3677 0 24 0 27.68848453235888 47.81949054476988 30.165929102183856 0 9 0
378 28 24 0 38.43261747076088 49.08546550219128 30.54841554528227 0 1 0
5111 0 24 0 33.37079324143969 48.12236321984055 30.716433598068424 0 3 0
5288 0 24 0 35.43233328352718 49.91157128204032 34.738871197813175 0 0 0
6081 0 24 0 9.23809312371487 54.473127434495176 31.83892623710607 0 0 0
5896 0 24 0 15.56281845698131 51.66761406380478 34.03089124667811 0 0 0
6116 0 24 0 14.464894218215658 56.86018910898192 35.76143438578661 0 0 0
5940 0 24 0 13.497130696862014 56.57489723660268 30.095343948657682 0 0 0
5602 0 24 0 16.442016327874434 52.19714893154296 29.20377356785422 0 0 0
5116 0 24 0 18.730695216263733 55.6195919222029 33.86901425081088 0 3 0
2683 2333 24 0 25.25795532720932 51.34154810767862 32.291553985826276 0 7 0
5234 0 24 0 30.34878517502783 50.45016066099503 33.70180870733028 0 1 0
4881 0 24 0 29.060734741273674 54.15222969248299 29.596910410494008 0 8 0
4197 0 24 0 27.314273587394332 55.21963556270805 34.14704761521865 0 8 0
4951 0 24 0 33.74985179476287 54.349235008762285 32.8025786382694 0 5 0
663 313 24 0 39.89231410230133 53.99186606175709 31.879516038586146 0 2 0
6018 0 24 0 11.485602525247637 59.97292865928876 32.91310231006835 0 0 0
5608 0 24 0 15.575889172728514 61.568454890968184 31.06929927849088 0 0 0
5978 0 24 0 10.58790881168553 64.38697506961773 34.401931658938416 0 0 0
5575 0 24 0 23.095438913722113 58.762074810397856 32.169463516256194 0 0 0
5889 0 24 0 18.345325918904155 61.08571197430096 35.53360537493199 0 0 0
3832 0 24 0 27.14279351835181 60.51153889070333 29.37198314604692 0 8 0
4991 0 24 0 26.867169331177788 60.44120913678017 34.826722577598595 0 4 0
4577 0 24 0 30.359598808265876 58.20918111998282 31.921680805304273 0 8 0
4696 0 24 0 24.329218114396674 64.70582651218626 31.852143532464037 0 8 0
383 33 24 0 39.54931602190477 62.168516284046014 29.422394567186775 0 1 0
1376 1026 24 0 32.202353203631034 62.18567800778137 34.53778796043839 0 6 0
3610 0 24 0 36.22485665518141 59.047728347058005 32.14815333158102 0 7 0
2713 2363 24 0 38.09442754224471 64.16965922157986 33.93633359406748 0 2 0
5626 0 24 0 5.935846573928432 65.68858167399863 29.231429953698466 0 0 0
6068 0 24 0 7.824791649849232 70.25020639451604 33.43592462599587 0 0 0
5447 0 24 0 10.149952801936303 68.50732171780874 29.09755486462376 0 0 0
5556 0 24 0 15.48857773915954 66.90889228749865 30.361000323357597 0 0 0
5661 0 24 0 13.099017232724671 69.35781173541685 34.157129391606624 0 0 0
5574 0 24 0 19.266253602732093 65.37924953823777 33.446426019260805 0 0 0
4785 0 24 0 23.14877266228927 69.25647006925651 35.5086975179594 0 8 0
4955 0 24 0 23.286344378721196 69.73099869170741 30.107999755079025 0 4 0
5051 0 24 0 19.005312520178915 70.55015303901462 31.642401969806794 0 4 0
2643 2293 24 0 27.32324310468312 69.53097851706418 33.30648572573323 0 6 0
660 310 24 0 29.584589616325186 64.80297062207256 30.590270091287543 0 5 0
371 21 24 0 27.53788163823704 65.27002044311416 35.85610017451458 0 6 0
669 319 24 0 32.45376895855513 68.2944411395289 31.724428788190117 0 6 0
585 235 24 0 35.389530019877476 65.11508908729297 29.789228586906553 0 5 0
3711 0 24 0 37.42786051367838 69.28800954562017 31.27304731736004 0 7 0
2730 2380 24 0 36.03207828340913 71.74736390960433 35.56030148172202 0 4 0
5511 0 24 0 12.128918563249362 39.96298927199921 41.21869661554764 0 0 0
4576 0 24 0 21.1518169705285 39.593444101889986 38.80661804535522 0 9 0
5356 0 24 0 16.976560932590385 38.18825949636958 41.45223609672751 0 0 0
5596 0 24 0 16.88623922715477 41.2499798812742 36.82878466953568 0 0 0
4143 0 24 0 29.073811459161856 38.99654554955744 39.65492679150083 0 8 0
5436 0 24 0 24.725204731355696 36.11645426412091 39.16769665984639 0 0 0
4751 0 24 0 31.618961357430326 42.99434208842072 38.788963381735 0 7 0
3565 0 24 0 25.071697130442313 42.973330972019774 39.44573209189821 0 8 0
1190 840 24 0 36.49532828772305 39.26459812710418 40.24964383132946 0 5 0
385 35 24 0 33.553062674344105 36.6456982407554 43.08810677772053 0 8 0
5706 0 24 0 9.254794908077239 47.779826884744594 39.92636425076201 0 0 0
5319 0 24 0 13.891356280084466 47.953984680720254 42.10102588675589 0 0 0
5921 0 24 0 12.472866077226447 45.276032750838354 36.86851226674995 0 0 0
5280 0 24 0 16.560946796183405 47.74225955417643 37.947571610563585 0 0 0
5252 0 24 0 16.146282771726046 43.63553347724683 41.20713610490609 0 0 0
4442 0 24 0 20.78296740421325 45.13617364839837 39.26116365053832 0 9 0
4830 0 24 0 22.961970186800333 48.72752285433848 42.908351479769514 0 8 0
5322 0 24 0 23.870060360752493 48.02134812156319 37.083673767239596 0 0 0
2139 1789 24 0 28.279347893650158 47.084697711569035 40.445010052113986 0 7 0
5276 0 24 0 31.5303974261317 50.37138815108783 41.37590663014701 0 0 0
2121 1771 24 0 35.569884952700455 43.77576227439983 41.10649051823049 0 6 0
2859 2509 24 0 32.78851890473041 47.38253309675366 37.86017387988547 0 7 0
5115 0 24 0 36.85958215990088 48.90154342325251 41.94654431341621 0 3 0
5665 0 24 0 15.134272253929197 52.41512721851361 39.4666488669023 0 0 0
6117 0 24 0 11.240206516200402 52.33459993561995 36.685611096386324 0 0 0
5363 0 24 0 11.494288785171456 54.18347124160024 42.71106741941535 0 0 0
4905 0 24 0 23.330561730426215 53.6026973264895 36.83777865509464 0 8 0
5670 0 24 0 18.807106516915848 56.008617010240606 39.00339909102384 0 0 0
1873 1523 24 0 22.629593032035366 54.09548047105711 41.87703524549579 0 7 0
4740 0 24 0 20.01356535185081 50.82326084733133 39.182331796984144 0 9 0
2847 2497 24 0 27.705018691254345 51.44539952669302 37.80608852380237 0 7 0
4950 0 24 0 26.821553148132647 52.08720697346408 42.609257408194615 0 5 0
2731 2381 24 0 30.633664207340676 55.19564041231871 43.141851173494146 0 7 0
652 302 24 0 27.117504069881146 56.35278244087216 39.88969126453217 0 6 0
2100 1750 24 0 32.320200939267664 53.39041965902272 37.60700622349637 0 6 0
2707 2357 24 0 35.29223125790541 54.01990508108143 41.75667253524029 0 7 0
1409 1059 24 0 39.271560234265415 52.70497159271143 39.708100738385944 0 2 0
1927 1577 24 0 36.92635593491802 54.84546540403341 36.28349423291838 0 4 0
6174 0 24 0 5.692209661255896 64.10569362724135 37.07382802253141 0 0 0
5868 0 24 0 14.290609434640354 57.98769717623778 41.134511128377966 0 0 0
5555 0 24 0 12.941326170462435 62.694449231839 40.436733083471594 0 0 0
6165 0 24 0 9.336897528905938 60.2688026434089 37.308240020398955 0 0 0
3586 0 24 0 23.671604197614233 59.271965080279415 42.84177636158066 0 8 0
5777 0 24 0 18.557549483875604 60.48756541562945 40.92229093094842 0 0 0
5257 0 24 0 23.46127814125744 58.455253318256084 37.5506432972406 0 0 0
3289 0 24 0 22.483032088227567 63.485986869919145 36.650812724984945 0 9 0
1353 1003 24 0 30.858553068359974 58.10784115026346 37.327827546845825 0 6 0
3450 0 24 0 25.875149125065143 62.74161198355217 40.34138701605934 0 7 0
1861 1511 24 0 29.537557468515814 60.218390073840446 43.1364376415411 0 7 0
3996 0 24 0 30.8011759880753 63.5345208579891 39.32236478196609 0 7 0
1986 1636 24 0 34.317823949817736 59.22409185012872 41.881762211609484 0 7 0
4077 0 24 0 38.97458361109702 58.14354272942627 42.022319432472194 0 7 0
2752 2402 24 0 39.71303563287072 63.10950085296141 39.634963204546395 0 2 0
4917 0 24 0 36.10490580193091 60.23205563203731 37.164827799393386 0 5 0
1906 1556 24 0 35.367322047658746 64.18370101134127 41.59957380753267 0 6 0
6078 0 24 0 8.052777173873093 71.24626022729312 40.07783891330769 0 0 0
5371 0 24 0 14.476332621867103 71.08324328098058 39.1497697379337 0 0 0
5938 0 24 0 10.540612668836927 66.84504218745653 38.94089728740984 0 0 0
3797 0 24 0 15.346226464492274 65.20601506594889 36.53129159601193 0 8 0
5541 0 24 0 20.543349433075452 70.38778154685659 39.89320139848366 0 0 0
5787 0 24 0 18.3979726779967 65.43090079912129 40.236793171644344 0 0 0
5439 0 24 0 18.109017385877184 69.17550900776489 36.103609356024094 0 0 0
1363 1013 24 0 29.672478677077716 68.70152433515779 38.33501275778223 0 7 0
4306 0 24 0 25.280767855327376 67.60830126637212 40.30560126186858 0 8 0
2002 1652 24 0 38.00794422494943 68.29041239101403 39.26569556411022 0 3 0
5135 0 24 0 33.85327392997209 70.32717566746 40.53241028566903 0 2 0
2067 1717 24 0 34.015318328732015 66.57089724398664 36.46786930098693 0 4 0
5923 0 24 0 7.856985857154094 38.08140608388308 47.66099770602798 0 0 0
5977 0 24 0 11.870092679082342 40.914100697238396 50.24475666601621 0 0 0
5696 0 24 0 12.318399847432502 37.92655211378887 45.695128607585104 0 0 0
6025 0 24 0 15.801708139230197 42.34381708583888 46.241110620745005 0 0 0
5390 0 24 0 16.943573891307388 36.70872884586339 47.460479205355284 0 0 0
5055 0 24 0 20.361439722548532 41.035029433831625 43.77800941348729 0 4 0
3267 0 24 0 21.47073536278335 38.04602269996645 47.94511079721292 0 9 0
2608 2258 24 0 20.969096168459554 43.10512260747884 49.02788530238978 0 7 0
3786 0 24 0 28.915461619446962 42.543111080986975 43.20657796023652 0 9 0
5244 0 24 0 24.77566621309144 38.436733279310275 43.68519096784236 0 1 0
2738 2388 24 0 26.16058979119112 39.39512714933212 49.17713167603492 0 7 0
3272 0 24 0 29.637026190046086 37.90786106245928 45.2744606308201 0 8 0
2093 1743 24 0 31.789524409210447 38.444909808375385 49.86999140638946 0 6 0
2639 2289 24 0 29.75171109827815 42.77328143445931 48.13182605456531 0 7 0
1879 1529 24 0 39.092642855796036 39.41076964817027 45.959629796520076 0 4 0
1824 1474 24 0 35.649252977082945 36.165919404031705 47.478200877814935 0 5 0
2618 2268 24 0 33.977263071664275 41.019235757280214 45.526106187004025 0 6 0
1875 1525 24 0 37.5770359963931 42.40277145599157 50.05390492142413 0 7 0
5724 0 24 0 10.061387079321275 49.760085626598816 44.45592256244824 0 0 0
5841 0 24 0 8.338695989052727 44.27829118904586 48.89101012626842 0 0 0
6104 0 24 0 11.261656046786706 44.29609157061724 44.19096008713342 0 0 0
6016 0 24 0 13.183811433137695 46.860483626452314 47.16213235087628 0 0 0
6061 0 24 0 8.68446561845911 49.035883683315724 49.648315367928575 0 0 0
2578 2228 24 0 19.03766346365873 46.08157135390386 44.59811231790815 0 8 0
5297 0 24 0 21.90866196844024 47.87921169493495 48.11296242567867 0 0 0
5278 0 24 0 24.64034418014906 43.82060904499814 44.445199092652174 0 0 0
1975 1625 24 0 31.078477769718365 47.802653875936684 49.28516300762177 0 6 0
4829 0 24 0 27.341932805730295 47.22185039590371 46.42364544692861 0 9 0
2607 2257 24 0 31.968858978589783 45.84794195117 44.25107230980451 0 7 0
2845 2495 24 0 36.85367908639942 45.71131756019754 45.78838567774404 0 6 0
2632 2282 24 0 34.22060471806256 50.041408374163055 46.158912948848815 0 7 0
6017 0 24 0 6.698767536168821 53.88864989782348 44.36216727048981 0 0 0
5517 0 24 0 13.619269445421233 52.12748383123726 46.98485995363573 0 0 0
5980 0 24 0 10.132307207180512 55.08901027098387 48.42926908651705 0 0 0
5913 0 24 0 15.466473433703154 56.85044354828352 48.037423572634125 0 0 0
2143 1793 24 0 17.806234447056596 50.902463423166076 43.68152415683164 0 7 0
5846 0 24 0 18.323382152782344 56.05832606556576 43.764520714529134 0 0 0
5404 0 24 0 18.73719437571818 52.51503767256783 48.12774404458987 0 0 0
5253 0 24 0 23.331911395797633 52.86979726755472 46.637174834710684 0 0 0
4216 0 24 0 21.654121316342653 57.212882068497954 48.645863803398676 0 9 0
1914 1564 24 0 29.14581790667365 51.7941459767166 46.68829327791049 0 6 0
3823 0 24 0 26.33330735057769 56.606379956667546 45.967962020698636 0 7 0
2610 2260 24 0 34.64903094119827 55.08899647765945 46.97227999020408 0 7 0
2175 1825 24 0 38.635741495364904 52.20703821111094 45.01072530914319 0 6 0
2145 1795 24 0 39.12857896632981 56.93078657158676 47.175340864532 0 6 0
5974 0 24 0 7.214882279413202 64.16045698274509 48.190396944844615 0 0 0
6234 0 24 0 10.028352355513137 59.889109136219275 43.68057459078614 0 0 0
6230 0 24 0 9.699883712937732 60.250667614452794 49.65749094361467 0 0 0
5895 0 24 0 15.739051063231118 61.906033172974055 45.16836314233233 0 0 0
6037 0 24 0 12.285813312702274 64.65120638443747 47.70244456923982 0 0 0
4877 0 24 0 20.95870312406832 62.72587828045801 44.35423809862121 0 8 0
5668 0 24 0 19.498357498017274 61.6053846566274 48.76564785171738 0 0 0
3816 0 24 0 25.23628506099062 60.881212454470706 47.18581485540667 0 8 0
3583 0 24 0 30.614489007692644 58.815056589025744 47.80153599888898 0 8 0
4939 0 24 0 28.282983877634276 64.62033125195404 49.187899472793 0 5 0
5262 0 24 0 35.6053958932101 60.1371834228409 46.99486497403847 0 0 0
3301 0 24 0 32.26975309890998 64.46930841640278 45.812777990295075 0 8 0
4703 0 24 0 37.56118849452895 64.31682222250896 45.94603777688787 0 7 0
6086 0 24 0 5.4390336444304825 68.97581208052623 48.140533867804876 0 0 0
5873 0 24 0 13.78406825525885 66.81420606905651 43.56213394138988 0 0 0
5947 0 24 0 8.629155414965219 65.31093229387888 43.381437259891065 0 0 0
6095 0 24 0 9.796550194150155 68.64291570450166 49.78865347499745 0 0 0
5478 0 24 0 14.326307381925577 69.78878714719781 48.21534263297849 0 0 0
5616 0 24 0 9.980467655847924 69.56588753561992 44.54420846447347 0 0 0
5451 0 24 0 19.58432776504874 71.280160640218 47.61798282944699 0 0 0
5435 0 24 0 17.372896953859122 69.83626314215617 43.301114246373174 0 0 0
5394 0 24 0 17.857627556813174 66.18178237929911 47.1674164328057 0 0 0
5272 0 24 0 22.540312320605754 65.97430426982936 50.306948695974185 0 0 0
5385 0 24 0 22.274036524758063 67.58143748679035 44.3222233818146 0 0 0
4640 0 24 0 28.816432145910355 70.62639622852187 43.31751427292604 0 8 0
5495 0 24 0 27.000554067478895 65.51435264342412 44.2533405461105 0 0 0
5526 0 24 0 29.930774730205243 69.34948227891037 47.8574995274698 0 0 0
4435 0 24 0 24.32338426215987 70.60842587811433 48.78627134587135 0 8 0
2560 2210 24 0 35.219870496052664 68.81711967690377 45.5588015101591 0 4 0
2892 2542 24 0 35.0154999901273 67.33206453810165 49.990681390372345 0 7 0
2160 1810 24 0 38.68354070897004 71.46438877554185 48.17031662816048 0 2 0
5939 0 24 0 8.704843970333302 38.02896470041215 52.56810548983369 0 0 0
5730 0 24 0 13.040017600026411 36.13910993017881 51.32489238572805 0 0 0
5960 0 24 0 9.21885255522667 42.68739723227894 54.31818076157423 0 0 0
5476 0 24 0 14.104460654902473 40.073313033006514 55.85244926146787 0 0 0
4010 0 24 0 20.222713544317703 36.18356602685222 51.960099778169024 0 9 0
4082 0 24 0 17.512286537318857 40.67621551116989 51.96243800677376 0 8 0
1833 1483 24 0 22.23469247054669 43.133976515120956 53.56291867770104 0 7 0
3552 0 24 0 19.054651126681655 39.30380501115696 56.35691671946991 0 8 0
2717 2367 24 0 24.403377988522408 38.79488326349572 53.536213971754655 0 8 0
1835 1485 24 0 31.244596782772458 36.7983055283551 54.75266496718161 0 6 0
2010 1660 24 0 29.00579677635347 42.25613261205423 53.129707956493114 0 6 0
1897 1547 24 0 35.968892540156865 38.93188865508654 53.50626290115564 0 6 0
1937 1587 24 0 32.90016029249258 41.39293068354197 56.68744752763032 0 6 0
5807 0 24 0 14.270909183649371 44.72798123173763 52.07477424574313 0 0 0
5912 0 24 0 10.412470701167997 47.53704288523586 55.19364712851978 0 0 0
5792 0 24 0 15.21548233502721 48.500141212732146 55.86293094484795 0 0 0
5931 0 24 0 13.839318093102905 49.83541333850487 51.13200697300558 0 0 0
5880 0 24 0 17.850071310087294 47.72800228452308 51.4537967424714 0 0 0
5722 0 24 0 17.87575952653588 44.279883816666505 55.39094669060052 0 0 0
5563 0 24 0 21.22804964371367 47.92001697857763 54.8246990557945 0 0 0
2005 1655 24 0 26.53726789498222 50.03124282577686 50.60400726803123 0 7 0
3578 0 24 0 25.329004863060884 45.73000948967674 51.31639919935718 0 8 0
5310 0 24 0 29.373490350891636 47.439618262999836 54.06607244428692 0 0 0
2132 1782 24 0 26.21771833254811 44.620760764457444 56.785652086792 0 7 0
4825 0 24 0 25.72428569702483 50.187498373759055 55.52973509619437 0 8 0
2126 1776 24 0 33.378032018065625 43.985867018408946 51.76746373682247 0 7 0
2565 2215 24 0 37.18361712077309 43.93445389241337 55.1651000034418 0 5 0
2577 2227 24 0 34.727779763561 48.67262700864929 53.478319472718205 0 6 0
1880 1530 24 0 33.16986486381963 46.13503996750735 57.31045153493518 0 5 0
2652 2302 24 0 39.49666312253249 47.65786846697874 52.20755486127228 0 1 0
6150 0 24 0 7.442424003970275 51.54013054669992 53.84807311231478 0 0 0
5851 0 24 0 5.810652545036199 55.361638101413845 50.718166416318965 0 0 0
5774 0 24 0 13.373767173691649 53.18299409524711 54.75271304594426 0 0 0
6109 0 24 0 9.117252689294618 55.066829044917995 56.370071551706204 0 0 0
5674 0 24 0 12.496939630278943 57.37245518991176 52.341620265852136 0 0 0
5411 0 24 0 13.777965241277625 57.22253022979336 57.50382510498657 0 0 0
2612 2262 24 0 22.52517807298948 53.24228920102553 51.67399393793126 0 8 0
5386 0 24 0 18.310604677226028 51.83257996262849 53.71665034246475 0 0 0
5308 0 24 0 21.91951543938538 53.373769782383135 56.9425908951025 0 0 0
5294 0 24 0 17.974974391369233 56.19882059219426 52.11664825071198 0 0 0
4065 0 24 0 19.020185430035895 57.22179993130382 56.76077321869067 0 8 0
3810 0 24 0 27.16777507013309 55.02657747650094 50.66740800108458 0 8 0
1922 1572 24 0 31.71322789249617 52.635570444062125 51.07424643996576 0 6 0
1984 1634 24 0 31.002670434805765 51.20325985995057 57.316851331846934 0 6 0
1842 1492 24 0 26.720072324912422 55.028201404889515 55.66567601737619 0 7 0
5364 0 24 0 31.518841741920674 56.01407081351414 55.8169559644557 0 0 0
1976 1626 24 0 39.46658319144686 56.2012966655536 52.25513945431391 0 6 0
1825 1475 24 0 36.71106677351162 52.2052526634538 51.123002821809045 0 6 0
2181 1831 24 0 35.41727565981921 52.75760982212999 56.06487335521021 0 5 0
2017 1667 24 0 36.58702840814103 57.545500644319475 56.375997723571665 0 3 0
5355 0 24 0 5.2466692756489826 61.69031913253583 51.94634041886244 0 0 0
6031 0 24 0 5.16981006549958 58.992321226319795 56.52727757153692 0 0 0
5446 0 24 0 14.814207991998535 61.679954904562436 50.76084499143101 0 0 0
5409 0 24 0 9.97778307120464 60.95872164489675 55.25693702021145 0 0 0
5365 0 24 0 15.39771887636221 63.614379746228984 55.58058844904065 0 0 0
3885 0 24 0 22.554536392864673 57.880588653042956 53.47493849965244 0 8 0
5236 0 24 0 20.07135188310899 62.30531356341486 53.50785730333345 0 1 0
5076 0 24 0 23.851502921716165 61.13413478126964 56.82200258396383 0 3 0
2646 2296 24 0 28.28829543259673 58.94793759250214 53.15190884006336 0 7 0
5190 0 24 0 25.110526496245427 62.10216291643246 51.884102795607376 0 1 0
5003 0 24 0 28.68033136396336 63.88216804428293 54.96021141993761 0 4 0
4532 0 24 0 32.32717318928862 62.604368247789395 50.60586539146137 0 8 0
2825 2475 24 0 34.868286493967645 58.24045081306629 51.07558687451205 0 7 0
5113 0 24 0 32.453934842419315 61.14521757475732 55.50854668684416 0 3 0
2008 1658 24 0 37.33172747957196 63.28058876041379 52.202928160742836 0 1 0
2078 1728 24 0 37.510201455434284 62.7273071528632 56.76152923888643 0 5 0
6173 0 24 0 7.5214500172134695 65.98683151431722 53.58256228165274 0 0 0
4470 0 24 0 14.854306271579272 71.64310226707777 52.84635510123766 0 8 0
6101 0 24 0 10.915778055839901 69.78184827742736 55.7447635989594 0 0 0
5498 0 24 0 13.62195125766274 66.36586125850955 52.366540169367404 0 0 0
5791 0 24 0 16.279560448962638 68.55229118294224 56.60729354995056 0 0 0
3608 0 24 0 23.6803759100136 66.58521045950914 55.127650414765135 0 8 0
5361 0 24 0 18.171694872365237 67.50007106875736 51.98355653929743 0 0 0
3675 0 24 0 21.7489979572717 70.95339502105323 53.065837183118106 0 8 0
5020 0 24 0 27.35383089276269 68.47374476608788 51.889944386662386 0 4 0
5056 0 24 0 28.13165921852586 67.8589507332779 57.0807333454026 0 3 0
1923 1573 24 0 30.603643499875393 71.0686785553612 54.6326703805672 0 6 0
2826 2476 24 0 32.98721662615431 66.36563700470869 54.560486820824515 0 6 0
2880 2530 24 0 36.99136329064147 68.81527794314975 54.53023741526688 0 2 0
5143 0 24 0 33.45507780310565 71.56116639675669 50.67972216464104 0 2 0
5963 0 24 0 11.274855082575181 39.81192672070482 59.68260960445454 0 0 0
6007 0 24 0 15.122795333890275 41.95268241384988 64.60932017059407 0 0 0
6124 0 24 0 16.12689519079413 37.95211793286725 61.9061721934782 0 0 0
3597 0 24 0 22.555670941985458 36.29180780515286 62.034741880746274 0 9 0
4400 0 24 0 21.003424835523965 40.69126144443666 64.674255946534 0 9 0
5879 0 24 0 17.582469266688452 42.54605494595905 60.31589323395595 0 0 0
3818 0 24 0 23.546751313182725 40.349003695461406 58.75556461615151 0 9 0
5210 0 24 0 27.529045378001623 39.02714279469333 62.98382389246466 0 1 0
4060 0 24 0 28.240061230646667 39.34285418477371 57.62257146313441 0 7 0
2004 1654 24 0 30.127296804765194 42.84790203731154 60.68858747121317 0 7 0
2846 2496 24 0 37.60056670566446 39.632934569115434 57.896399988433735 0 5 0
5172 0 24 0 34.13087383096715 40.19810417128013 61.79567215802081 0 2 0
2702 2352 24 0 39.12528699073236 39.06377812535533 62.60772524951938 0 5 0
6075 0 24 0 6.550127768062023 46.016529608303955 58.620388097274024 0 0 0
6170 0 24 0 9.414682935382752 43.481886824147765 63.689841402973485 0 0 0
6084 0 24 0 8.320883225646678 48.299398131985036 63.29089338633775 0 0 0
5768 0 24 0 12.595925037032355 44.67549016089039 59.020405968872424 0 0 0
6169 0 24 0 13.049689612251576 47.543904068823615 63.98417468933058 0 0 0
5805 0 24 0 16.677334214337993 47.3541188723597 60.4760604540939 0 0 0
2556 2206 24 0 22.247720825891637 45.739711110284965 59.70835529950669 0 8 0
3696 0 24 0 23.68505012935416 50.315847336400296 60.093357528123974 0 8 0
5883 0 24 0 19.727654076926246 50.094912124759425 63.1527853238944 0 0 0
3427 0 24 0 25.31360776199415 43.347460332392686 62.6312513827915 0 9 -1
2815 2465 24 0 28.0655206914514 48.12333980317211 61.18985187477903 0 8 0
2630 2280 24 0 38.05750134587973 48.318256274753516 57.65769998622896 0 6 0
5140 0 24 0 36.88491465800737 44.39786040260085 60.992578103022005 0 2 0
3607 0 24 0 32.656067640836135 46.088108234542474 63.12457865415897 0 8 -1
2642 2292 24 0 34.73221920175361 50.31335988093167 60.39793455067778 0 5 0
1911 1561 24 0 38.05125016898741 48.56848759919713 63.84162877231511 0 5 0
6089 0 24 0 11.69165988415019 50.95330574803577 59.33501835511454 0 0 0
5945 0 24 0 15.085409448606065 51.81907907279662 63.10817385476524 0 0 0
6062 0 24 0 9.187601753968993 53.71072363899409 63.2600287352987 0 0 0
547 197 24 0 13.603771766843066 56.769570973118945 62.571357904485545 0 7 -1
3467 0 24 0 17.221494477688346 52.59854734270744 58.479785467839534 0 8 0
5341 0 24 0 23.038989217731043 53.87087075651768 63.746913405173984 0 0 0
2716 2366 24 0 18.847812719205557 56.222779363849774 61.79823725900669 0 8 0
5553 0 24 0 23.931737045062988 56.92492341238912 59.72844149887393 0 0 0
5064 0 24 0 27.3745009584038 53.24535299637294 60.379959065645785 0 4 0
5293 0 24 0 31.078723990982777 51.39752192451345 63.70079765449982 0 0 0
5242 0 24 0 28.4661799297314 56.71778148445425 63.24588546924988 0 1 0
2069 1719 24 0 35.765288128762926 53.99570257488037 64.08254036386955 0 5 0
2674 2324 24 0 38.81880260386179 53.362206213851216 59.46049496752574 0 3 0
2083 1733 24 0 33.3602142732504 54.65100659735643 59.95014114197912 0 6 0
6149 0 24 0 6.93705701760384 62.57072596639602 62.56339598678453 0 0 0
5975 0 24 0 9.763336370369919 59.00554664090241 60.130749570158706 0 0 0
5707 0 24 0 12.555898851087992 62.11672038951799 63.68943897754196 0 0 0
5584 0 24 0 15.787884221608929 60.85664410646973 59.54768138273598 0 0 0
5496 0 24 0 19.972444695514863 64.56351895777206 57.87622403558125 0 0 0
1895 1545 24 0 22.052627864495328 61.60636090943394 61.38076659377265 0 6 0
5032 0 24 0 17.36036280282422 60.742191422711976 64.23580456818863 0 4 0
5347 0 24 0 28.10971078844632 59.5022468142444 58.34858109682028 0 0 0
3903 0 24 0 26.890851892039677 61.7900558616218 62.52478163707475 0 7 0
5141 0 24 0 30.396251856861795 64.25415791166196 59.78902813282375 0 2 0
2797 2447 24 0 37.52461721533142 58.0542200034621 61.18258300106953 0 6 0
2016 1666 24 0 33.02494545227691 59.505769337351126 60.206447968586275 0 6 0
5935 0 24 0 7.669028574520415 71.69017623042262 60.80325241416147 0 0 0
5890 0 24 0 11.71333497245542 65.13855353211564 57.88511967024311 0 0 0
5646 0 24 0 10.427350256608413 67.77592689671249 63.10103248472163 0 0 0
5914 0 24 0 15.64115070826515 65.70269744756047 61.272239872428166 0 0 0
5317 0 24 0 13.730334347630723 71.535724920949 60.42579424432507 0 0 0
3783 0 24 0 20.86393279683515 70.25465251287865 57.884586344983994 0 8 0
5687 0 24 0 19.7068402208219 65.33978744169153 63.81033168051907 0 0 0
4925 0 24 0 18.968937306196253 70.08167557686492 62.63266365062162 0 5 0
5227 0 24 0 30.025226041707647 65.25027221167107 64.66637094880494 0 1 0
2832 2482 24 0 24.37723039047061 65.95438705448872 60.03757466316311 0 8 0
5226 0 24 0 29.07772219329743 68.83373162143816 61.79563678215437 0 1 0
4390 0 24 0 24.46763157904435 70.97036510344772 61.37457486097985 0 8 0
2087 1737 24 0 33.17416548003576 69.8639356847232 64.03784592534474 0 6 0
2052 1702 24 0 35.0824059277262 65.23143896229725 62.51879503750187 0 5 0
1855 1505 24 0 38.487610144050784 68.31405555123186 64.19922572901602 0 5 0
1242 892 24 0 32.95883695451471 69.20339680918012 58.82245261510692 0 4 -1
2734 2384 24 0 38.33075450111252 67.3585790707909 59.288819250658655 0 3 0
2701 2351 24 0 36.97743399878791 71.82781902257614 61.08036520318261 0 2 0
5952 0 24 0 11.94324552561044 38.349272728468534 65.66154033395374 0 0 0
5578 0 24 0 9.044031179531848 37.50350275149565 71.18744484121477 0 0 -1
5673 0 24 0 17.10234344359882 37.98584657402023 67.49645705711845 0 0 0
5250 0 24 0 22.183795787922165 37.70292363041296 68.06870616962782 0 1 0
5457 0 24 0 19.134930466664347 39.87279966709477 71.32762031118386 0 0 0
1401 1051 24 0 26.45272300666089 36.384081083434396 71.04679491557214 0 8 -1
412 62 24 0 31.88930068789738 37.64785238425675 69.30692459052729 0 7 -1
2023 1673 24 0 30.943617800183517 42.0239614726598 65.68509542647091 0 7 0
4212 0 24 0 26.52350490472864 40.27834614985179 67.54813096957928 0 9 0
5158 0 24 0 37.12794400053714 38.56154962819669 67.66680581452354 0 2 0
5869 0 24 0 14.385739955422071 47.08027289574465 71.92507228161716 0 0 0
6069 0 24 0 12.378240244231373 44.48371821592948 67.9941678356421 0 0 -1
6070 0 24 0 10.630361163103393 49.44896348434497 68.80319313515204 0 0 0
5744 0 24 0 19.165302803325492 45.508396981353144 64.97780648572409 0 0 0
5734 0 24 0 16.92764318429357 43.90584525125931 69.16713041979536 0 0 0
4592 0 24 0 22.099194546552475 43.54003718449437 68.75376363496252 0 9 0
3588 0 24 0 23.696248920633668 48.03053254852357 65.5823759861826 0 8 0
3273 0 24 0 19.883370857213887 47.599838398126664 70.48026938546964 0 9 -1
5936 0 24 0 16.270286403514728 49.59605893490818 67.30145359139831 0 0 0
5144 0 24 0 27.778920546948807 44.02056951924579 70.79155378860558 0 3 0
2154 1804 24 0 29.165112721031477 46.65947362755558 66.17549568316512 0 7 0
702 352 24 0 30.385014014815805 48.650726560085175 71.26192036336255 0 7 -1
4766 0 24 0 25.05848474866957 48.188478584712456 70.3277218578772 0 8 -1
2890 2540 24 0 36.172588964021635 43.247289283926435 65.52974368223603 0 7 0
2631 2281 24 0 32.603824682697464 43.330429150109154 70.09575449014379 0 7 0
5121 0 24 0 34.9680235525291 47.497400590932905 67.32365110684884 0 3 0
5701 0 24 0 13.122364952416705 53.43542437285886 67.17323237156597 0 0 0
3425 0 24 0 10.318342675820704 56.1452064652434 70.5885400999661 0 8 0
4679 0 24 0 20.901755783055116 51.43166504335566 67.64418101885111 0 8 -1
5192 0 24 0 17.7857239780438 55.24212531743824 66.2772285789883 0 1 0
5512 0 24 0 16.043629503400574 55.88369960312672 70.65132440600969 0 0 -1
2755 2405 24 0 20.875419562737616 56.9622359798865 71.79876969815514 0 7 0
5117 0 24 0 24.693744320171323 55.29084743982437 68.2139828740422 0 3 0
3907 0 24 0 27.416974597461408 51.334072550824935 67.30933946731807 0 8 0
5366 0 24 0 30.417146889534106 56.618118785443286 68.41348621475228 0 0 0
1277 927 24 0 32.34697351001672 51.795247594243435 68.32406289991967 0 6 -1
1955 1605 24 0 37.62029888283324 51.95196631829121 68.34446507838724 0 3 0
1291 941 24 0 35.381155294988766 56.97751718613351 68.33310760732218 0 6 -1
2062 1712 24 0 39.69305617779416 56.55158032869914 65.91801271281929 0 3 0
6154 0 24 0 5.907519795476162 61.855291728862774 68.4424604325662 0 0 0
5518 0 24 0 11.04354209933645 64.09991718672222 67.92756479422185 0 0 0
5503 0 24 0 15.719398214568017 64.06635431327688 66.95007769986066 0 0 0
5676 0 24 0 13.58148068629937 59.47077119089023 68.10997967152427 0 0 0
6035 0 24 0 9.53947116545735 57.96621888485837 65.67574370184872 0 0 0
4964 0 24 0 22.101091718962877 63.38712445556907 67.69861956547052 0 4 0
4127 0 24 0 21.703967556292096 58.54824764407541 65.2934670958655 0 8 0
5633 0 24 0 18.290921167022947 60.68693860266676 69.7071207016456 0 0 0
2841 2491 24 0 31.870884519096965 60.701073675033015 65.1867713243 0 7 0
2064 1714 24 0 26.447126599917226 58.21176430192614 71.77043939203236 0 4 0
2066 1716 24 0 26.38797586145435 59.595275032038366 66.83092418403396 0 6 0
2746 2396 24 0 30.270039521796658 63.4582516769815 69.1529328100715 0 6 0
1851 1501 24 0 39.52027867874497 59.13538887890057 69.72435359946611 0 3 0
2586 2236 24 0 39.62877450454713 64.39335118121477 68.05628119648586 0 3 0
619 269 24 0 34.54814986231535 61.73567381480129 70.70826620244816 0 5 -1
1276 926 24 0 36.6779855324772 61.248616309794066 65.297596823835 0 6 -1
5919 0 24 0 6.549356297352733 67.70624474337063 71.18715347427748 0 0 0
5667 0 24 0 15.145348917086494 68.7903988413054 65.00317822653804 0 0 0
5554 0 24 0 14.688068303552726 67.38235699208484 70.2690205543969 0 0 0
5852 0 24 0 10.612184382014345 69.83007407426291 67.50363194351698 0 0 0
3553 0 24 0 19.708866255383576 68.37466079092147 67.34898793742988 0 7 0
4217 0 24 0 23.410228475950614 71.49782826890092 66.17487902264081 0 8 0
3284 0 24 0 21.538271338470057 70.66863334946723 71.66206821555586 0 8 0
5572 0 24 0 19.119716819998686 66.19561590939496 71.34439619524707 0 0 0
4986 0 24 0 24.47153111003688 67.10154216928537 70.17999155084654 0 4 0
6011 0 24 0 25.150811277648977 66.94940375321589 65.03944317600312 0 0 0
1166 816 24 0 29.481724530608986 69.5942225093251 68.0088755393288 0 6 -1
1863 1513 24 0 34.04693775367952 66.4392714840335 67.47171706304148 0 6 0
2837 2487 24 0 37.87932211037282 69.08424673781768 69.54749555954702 0 5 0
511 161 24 0 33.6097042403789 71.32485606018078 71.95697503222516 0 5 -1
1247 897 24 0 42.82016468800628 5.382924196682316 5.612152070111472 0 4 0
1245 895 24 0 45.41013210368449 1.7559612334581887 3.4292372816274295 0 4 0
509 159 24 0 47.86726723874391 6.004808878319578 1.816934583481959 0 4 0
1189 839 24 0 47.68596674447056 4.689480910102573 6.930176140935821 0 4 0
2641 2291 24 0 41.20015243799612 0.13235902677718597 0.15292901972933687 0 6 1
1439 1089 24 0 55.16543101086149 2.648076041377597 3.606885608746665 0 3 0
1305 955 24 0 50.19621467954512 1.407574441806997 4.07833068076533 0 4 0
2754 2404 24 0 52.5110091174304 7.187469742986529 2.9024573179671456 0 3 1
516 166 24 0 60.73527116660983 5.831452787563374 1.9961831967696464 0 2 0
2895 2545 24 0 60.26555084997813 2.0520987147950507 5.25060993453033 0 3 1
2019 1669 24 0 57.515611837194214 6.0028685024173365 6.951178090813054 0 1 1
740 390 24 0 63.19112580804028 7.025795830903211 5.9545350206305585 0 -1 0
1270 920 24 0 59.00789024104745 1.272471193881712 0.24158921633199804 0 3 0
1844 1494 24 0 64.8410535682208 3.1626871039467663 2.6173342161690183 0 0 1
1640 1290 24 0 69.06529239160575 5.435463893749523 4.412498716329272 0 0 0
1770 1420 24 0 79.54326056911542 2.8196127461353795 3.949848065544868 0 -2 0
984 634 24 0 74.61855746239667 5.288310388087643 1.6434859494825844 0 -2 0
750 400 24 0 74.06290436097431 1.8292417272010226 5.969640684592376 0 -2 0
1534 1184 24 0 73.33544529481729 6.70941295977071 6.710102054359442 0 0 0
1413 1063 24 0 44.97195511682466 9.792173954751243 3.4428480552703657 0 5 0
1235 885 24 0 41.97376548051838 14.11994849483418 3.1080624061506645 0 4 0
1398 1048 24 0 41.56165875063732 10.563467251064221 6.962292091260147 0 5 0
713 363 24 0 49.05821875297334 9.509523956829117 5.663661146466598 0 4 0
1199 849 24 0 51.42148828265275 12.328332891026378 2.184154200244926 0 3 0
1207 857 24 0 54.18328842264491 10.788893392643782 6.425033679004935 0 4 0
1775 1425 24 0 57.64081506782538 9.557457076906564 2.9244230607600454 0 0 0
3041 2691 24 0 62.607652630892645 10.832900338039511 1.2393651236227488 0 -1 1
742 392 24 0 60.44238772310798 14.106098410132256 4.419686735254797 0 -1 0
1525 1175 24 0 69.7598187171678 10.857084228217794 6.360350033777839 0 -1 0
2918 2568 24 0 65.18997411937156 11.468288660566557 5.726318125934305 0 -1 1
2404 2054 24 0 66.91253271225817 8.868652615771433 2.0293231552155038 0 -2 1
1633 1283 24 0 78.80084254256367 8.126624688428983 3.9474783779678075 0 -3 0
904 554 24 0 72.30327299761258 9.65190325982533 2.025499459142455 0 -2 0
2367 2017 24 0 74.7496641939622 11.40844417630407 5.8984459097181805 0 -2 1
1427 1077 24 0 46.98821674799986 14.865207898163431 3.007862943041811 0 5 0
1381 1031 24 0 43.71192493549201 18.779634222853012 4.965229652810688 0 3 0
2170 1820 24 0 47.402986217773254 19.28191038774978 0.59676806175235 0 4 1
2636 2286 24 0 42.3156160823176 18.358753232587322 0.15710963836944453 0 3 1
1321 971 24 0 51.882897824278146 17.295245871606113 0.6511918216079745 0 3 0
734 384 24 0 49.58512039694729 18.46323397048939 5.38790363714173 0 2 0
2830 2480 24 0 54.65297614424968 19.434489787444495 3.990537375124025 0 2 1
2635 2285 24 0 56.52543546411202 15.00803604757747 1.7049733001833751 0 2 1
932 582 24 0 60.713447575226326 17.689172313332296 1.2359301533176568 0 0 0
1654 1304 24 0 59.02443899914866 19.87487023005084 6.644966713457535 0 0 0
929 579 24 0 65.95699842533439 14.767285996149385 1.642765164359539 0 0 0
1074 724 24 0 71.67314635507563 15.268293758174295 3.049763110039118 0 -2 0
2398 2048 24 0 64.1576665955497 18.470432704813454 4.930799932946992 0 -1 1
1553 1203 24 0 68.81181775311981 19.59500574160719 5.390509709363209 0 -1 0
2934 2584 24 0 67.95679637124414 18.602718890888923 0.5499583382202707 0 -1 1
1542 1192 24 0 79.31611680028588 20.160339344347232 4.153960724513438 0 -4 0
1781 1431 24 0 76.99223155868809 15.532991679581828 3.7079621823992865 0 -4 0
1471 1121 24 0 73.69554664755519 19.741630437373487 5.245196381212894 0 -2 0
1390 1040 24 0 40.54377857055724 22.76756882715579 2.1596100698147707 0 5 0
2049 1699 24 0 46.14528545846372 23.666579738007954 3.4080428830735787 0 5 1
1266 916 24 0 42.16557310567701 27.58367184405931 4.446654635368451 0 5 0
1992 1642 24 0 50.968157401470314 22.734220219782355 2.457528890826403 0 2 1
2742 2392 24 0 50.3133480685077 25.798110442383 6.1671461031373855 0 3 1
2585 2235 24 0 55.033064218429644 24.741832564140058 3.8624548289797427 0 2 1
3144 2794 24 0 59.706236602130275 23.096981216247002 1.9098511163686613 0 0 1
2479 2129 24 0 62.61526299425124 25.409276858761725 5.427108785750456 0 -1 1
2515 2165 24 0 64.15110968345924 21.619030791769383 1.240710444952416 0 -1 1
1608 1258 24 0 70.97987477577608 22.71495416853423 0.9817597229760834 0 -1 0
1639 1289 24 0 67.07740889698394 25.669036710960984 2.9170279946842173 0 -1 0
1058 708 24 0 70.71071021626217 23.72142286291772 6.339092007672603 0 -2 0
1514 1164 24 0 74.4344286743802 25.9092353043347 3.588844459308235 0 -3 0
791 441 24 0 78.96272772050862 25.839946714372925 1.7568266961808678 0 -3 0
1661 1311 24 0 78.87744597221523 24.55968770707755 6.508324246434669 0 -4 0
2989 2639 24 0 76.20146651489443 21.906502105114296 0.13398100151049705 0 -3 1
461 111 24 0 44.96198462923478 31.80926257366337 5.369286265953299 0 4 0
1326 976 24 0 40.238228412347965 32.34694361417189 3.7210121334619335 0 5 0
5058 0 24 0 45.28945806342958 30.770009661189338 0.2933290358175284 0 3 1
642 292 24 0 49.34545769415004 30.00778209819317 3.3751012278514496 0 1 0
2851 2501 24 0 54.26324058597319 29.497007124906467 3.066189627557359 0 1 1
892 542 24 0 52.40476122884689 34.395908524688394 3.4266276116274352 0 0 0
911 561 24 0 58.4549132796565 29.43490484500723 5.198115809600856 0 0 0
1405 1055 24 0 58.48107548247131 33.41359409178665 2.651124997467373 0 0 0
1142 792 24 0 63.454768706484614 35.78396071615975 2.6643711761341677 0 0 0
1753 1403 24 0 70.57318094258122 28.845166573483397 4.724974728288075 0 -1 0
798 448 24 0 64.22168459360655 30.412822130744974 4.486393425700282 0 -1 0
1795 1445 24 0 68.05442932493811 32.50568853868999 2.359243708337099 0 -1 0
1025 675 24 0 75.8755437491369 30.173640820835605 1.8683890089033452 0 -2 0
1818 1468 24 0 77.95118916752054 33.99884303516906 4.546241538293461 0 -2 0
1786 1436 24 0 73.03413378895158 33.83337968915973 3.5579034332731543 0 -1 0
743 393 24 0 75.5967740869103 29.726243843954794 6.756612080514327 0 -3 0
476 126 24 0 43.92613324434097 3.8326859011331518 11.510701636983637 0 3 0
1366 1016 24 0 40.22663042774098 1.9522808258975899 7.814843900745213 0 4 0
673 323 24 0 48.07329912461057 6.512313700059723 12.669497300025029 0 3 0
1324 974 24 0 52.87390875400017 4.381472524917843 7.60243076714508 0 4 0
377 27 24 0 49.40904652247744 1.606766500741591 10.209871693770854 0 3 0
522 172 24 0 53.58390238156746 4.255584543102837 12.267089593146084 0 3 0
639 289 24 0 57.09216410182041 2.1765327480907186 9.470173562252382 0 1 0
1191 841 24 0 61.57195528822304 7.016507762139702 10.898060729035103 0 0 0
1050 700 24 0 61.273051260277676 0.2722428389440751 11.774821628433948 0 0 0
1691 1341 24 0 64.26438110232249 2.4730904763025396 8.177137524105428 0 0 0
1616 1266 24 0 69.11049185829205 2.8013314659489956 8.6327315685384 0 0 0
1527 1177 24 0 69.74370449128931 3.3095828162888443 14.06569498079178 0 0 0
1516 1166 24 0 64.90227936804219 4.094301384007458 12.869270869370139 0 0 0
1034 684 24 0 71.56642513242227 6.728759319589949 11.463478282791254 0 -2 0
1022 672 24 0 76.66599723119815 3.856598527542877 9.702247769228242 0 -2 0
504 154 24 0 44.8130904980132 8.890852679490164 9.836239628283089 0 3 0
614 264 24 0 44.0149398885074 13.664127771493721 12.071114103782007 0 4 0
426 76 24 0 44.98424139994497 14.121089879193057 7.3714898000859534 0 5 0
1421 1071 24 0 42.00089843201527 8.90534620388705 13.953777431728843 0 4 0
382 32 24 0 49.95901071309045 13.9801946660073 7.4890211795645385 0 2 0
1169 819 24 0 48.269566243807056 11.840707120145844 12.013049193385939 0 4 0
1384 1034 24 0 51.68281710792233 8.302818570858358 10.108525321780151 0 4 0
1230 880 24 0 54.314506328723176 12.652954378184587 11.077263125324745 0 4 0
1214 864 24 0 56.503576969698805 8.190077042847989 12.144246742514177 0 2 0
678 328 24 0 59.40545515475948 10.72066978130345 7.407132588330949 0 1 0
1337 987 24 0 59.38738163123612 12.92932456902176 12.699737954022053 0 1 0
1647 1297 24 0 63.68172783616789 12.60677352628189 9.964586106170668 0 0 0
1730 1380 24 0 66.93192241958877 7.330886458921694 9.585558316852891 0 0 0
1470 1120 24 0 68.08541618706558 12.341488883406528 12.49786594439016 0 -1 0
1530 1180 24 0 76.98771797649282 8.742655956789699 10.653804619210298 0 -4 0
794 444 24 0 72.59478462931008 11.75195381054085 10.786494230144474 0 -2 0
705 355 24 0 40.25940432382341 18.102046843027157 13.809164202338975 0 4 0
679 329 24 0 44.157644521879156 20.57330271249627 10.953471540762981 0 5 0
1370 1020 24 0 47.5236373626322 21.596550035497174 14.328997084861804 0 2 0
2000 1650 24 0 54.16122442343281 17.027750013913792 8.288651221893407 0 3 1
1125 775 24 0 48.97787965165205 16.924260731838782 11.46808834683462 0 5 0
1463 1113 24 0 52.17222537483843 20.338586914621327 12.598400810056512 0 3 0
573 223 24 0 58.05652079397436 17.856286463800036 11.566579714113358 0 1 0
797 447 24 0 62.70883732650609 17.491532914684658 9.379469719870025 0 -1 0
942 592 24 0 67.80563348835483 15.59712059739755 8.625839880334766 0 -2 0
1360 1010 24 0 66.25653517215349 19.71133992658853 12.655082738950197 0 0 0
1684 1334 24 0 70.89782741161129 19.91423218456257 10.095320614700293 0 -1 0
1765 1415 24 0 77.16084703654276 14.50592868154211 10.4004689409401 0 -4 0
828 478 24 0 72.75439090352214 15.76029730608858 7.885626429056092 0 -2 0
1643 1293 24 0 74.05735634871098 17.45009089473026 12.645782650654429 0 -2 0
1727 1377 24 0 77.74275434609619 19.48499771261452 8.77229827560615 0 -4 0
1108 758 24 0 41.82298736658632 23.07248281175083 7.4187694747567114 0 5 0
526 176 24 0 44.60397410742123 26.499185728333057 12.916501378348627 0 5 0
1402 1052 24 0 45.87383665767431 26.211181439890705 7.910561881322875 0 3 0
645 295 24 0 48.41868419945769 21.855128696503723 8.997588137399687 0 4 0
539 189 24 0 53.5345755604867 22.50168856023597 8.415181367348742 0 2 0
1281 931 24 0 49.48195341245856 25.714218195390416 11.600856337664528 0 3 0
484 134 24 0 53.79963193441137 28.181888151629106 8.277917786189649 0 1 0
1334 984 24 0 54.14148160049131 26.094182194656533 13.435423285853679 0 1 0
1261 911 24 0 61.555234789467235 22.441589327453965 10.445965726027099 0 0 0
1886 1536 24 0 58.056644224071334 24.84873631324072 8.288196392538541 0 1 1
1297 947 24 0 62.491798647957935 27.52499501547776 11.358505517850805 0 0 0
1212 862 24 0 56.98938368172892 22.13069179802108 13.940285913157085 0 1 0
1756 1406 24 0 65.79670186525767 22.255292105532526 8.275901278772947 0 0 0
1726 1376 24 0 66.89852029295767 27.563810614247725 7.764503353151228 0 -1 0
1594 1244 24 0 69.47529683453116 24.451290737024216 11.362700550634305 0 -1 0
1032 682 24 0 77.38499701653336 26.64409664132369 13.911524398670863 0 -4 0
1531 1181 24 0 74.30643044708796 24.588869133471675 9.359509127102566 0 -4 0
762 412 24 0 74.81589146396972 22.195257484569307 14.376036034315836 0 -2 0
1779 1429 24 0 79.56293941038797 28.202484463828817 10.140651365575481 0 -3 0
1168 818 24 0 42.308735768948985 29.638890341370043 9.447966771364328 0 5 0
722 372 24 0 43.070562161658046 34.69200538697163 12.101920456254044 0 5 0
1240 890 24 0 41.45233108428232 30.01292605642199 14.015681103881526 0 5 0
665 315 24 0 48.822589309028054 35.37147826443483 7.271828171977299 0 1 0
530 180 24 0 48.662731600931394 34.84042401616668 11.871985554658012 0 1 0
571 221 24 0 54.889456617992586 33.133818216208496 7.747481762765804 0 0 0
2906 2556 24 0 48.878365237699434 30.57000426918868 9.213854705078482 0 3 1
1145 795 24 0 53.12450445450503 31.104733962663556 12.513392535730322 0 1 0
1348 998 24 0 60.15995462854914 33.90875382773518 7.440715080422416 0 0 0
1410 1060 24 0 57.84469100481853 29.651080918646738 10.303064684861393 0 0 0
1121 771 24 0 57.627238001102086 34.54294522895399 11.510046631898081 0 0 0
1113 763 24 0 61.045587231742836 31.551867533218942 14.279587856106305 0 0 0
1338 988 24 0 67.38317836054105 29.319832850836676 12.711795473751947 0 0 0
432 82 24 0 71.52889936001473 28.93461771496427 10.00030393971534 0 -1 0
1192 842 24 0 64.27290872192276 32.50574784050134 10.006784901094996 0 0 0
482 132 24 0 68.94647990074617 32.64247361052816 7.425124105764569 0 0 0
1766 1416 24 0 70.87086184424221 33.96651460647384 12.894066926065417 0 -1 0
958 608 24 0 79.48471498763546 34.97452952681673 13.757097558983004 0 -2 0
1511 1161 24 0 75.46318823207011 31.754374681996484 13.038024896066375 0 -2 0
1739 1389 24 0 73.82819165317989 33.71743309409999 8.520156845059013 0 -2 0
1718 1368 24 0 79.00932747989513 32.96505654492462 9.330167792398173 0 -4 0
391 41 24 0 41.96857143735259 3.631860917651805 15.69008853484747 0 3 0
1176 826 24 0 45.24147783952001 0.20301794841001689 20.683654038964374 0 5 0
419 69 24 0 46.30940724317897 1.0791821512804936 15.96092193188151 0 3 0
512 162 24 0 46.20942581937663 5.4660351500848385 17.967887764976357 0 3 0
1397 1047 24 0 55.395927973523996 0.9923410791186286 17.843847962141577 0 3 0
718 368 24 0 50.650757854300345 0.7683313429155324 20.5037499851822 0 3 0
707 357 24 0 50.935679872416365 4.452678521822216 17.314186581383865 0 3 0
691 341 24 0 55.68153273178828 5.727402535145334 16.991914777979524 0 2 0
490 140 24 0 51.03967409001342 0.27788606576004843 14.855761354898316 0 3 0
1260 910 24 0 60.1867364983834 0.3750939336715398 18.288387265525667 0 2 0
456 106 24 0 59.04093879885405 3.7769733828229306 14.509678277682907 0 3 0
1518 1168 24 0 62.979587659942325 4.5517155197152785 17.74365446279232 0 0 0
1154 804 24 0 65.24727966996821 0.5412821540765892 16.238903334575706 0 1 0
1100 750 24 0 68.10698284510822 6.490721797482178 17.36625001772322 0 -2 0
1629 1279 24 0 71.41639017494049 1.5833407424305506 18.507387345316506 0 -1 0
643 293 24 0 64.08489139524302 0.24697817978408293 21.499052911871527 0 1 0
1755 1405 24 0 79.12668700985226 2.9291293731385264 14.93803530416354 0 -2 0
1096 746 24 0 76.68823578927616 3.837076985511306 20.323402503679198 0 -6 0
1581 1231 24 0 72.52373976426499 6.228199327523654 20.175706476635874 0 -1 0
823 473 24 0 74.42203866102776 4.119499816514934 15.197884002173563 0 -2 0
684 334 24 0 41.87676018009069 8.161696356909726 18.620874900134048 0 4 0
1151 801 24 0 41.715715046091944 13.633188622281482 17.208182790282187 0 4 0
631 281 24 0 46.156951243537065 9.931483379187702 16.09202227384485 0 3 0
616 266 24 0 47.06656478803065 9.172461242693783 21.24137323157744 0 3 0
536 186 24 0 44.7983175703251 14.091614537049072 21.111038698719014 0 3 0
1399 1049 24 0 51.969452726337536 9.014182723127295 15.359467121810779 0 4 0
1238 888 24 0 52.609681299341766 8.844020848802876 20.10841832125938 0 4 0
1243 893 24 0 49.70420746234264 13.630251203824526 20.62102517496715 0 4 0
1339 989 24 0 51.19271542612714 13.889264621327237 15.586508769136582 0 4 0
788 438 24 0 56.19213658843985 11.885098139337208 16.64954074939796 0 0 0
1186 836 24 0 60.02126769705657 8.357621994509236 15.98396289376349 0 2 0
799 449 24 0 61.336963257201404 12.814858168299201 18.37896454690224 0 0 0
1219 869 24 0 58.39587794784212 8.978054638689224 20.794794927411324 0 1 0
1803 1453 24 0 63.560340988246494 8.77332179893867 20.10101828569871 0 0 0
1772 1422 24 0 65.01392884971361 9.146977434855089 14.40535268352823 0 0 0
1687 1337 24 0 68.57653082089331 9.713451593801038 21.184057886551635 0 -1 0
1714 1364 24 0 66.6014615746307 12.715869564034499 17.64796655152952 0 -1 0
1638 1288 24 0 71.87905615911139 13.02376482686657 18.488999458578 0 -1 0
763 413 24 0 76.70432419365626 9.835059757327164 20.09203036537378 0 -2 0
1484 1134 24 0 72.51516210654474 8.36798760653689 15.735622482136085 0 -2 0
805 455 24 0 78.30132294734398 7.792278737799666 15.914826774339046 0 -4 0
865 515 24 0 75.12813761759963 13.044914160417024 14.892645972417828 0 -4 0
1528 1178 24 0 79.74798035781676 13.461385351075554 17.558607536409333 0 -3 0
1434 1084 24 0 46.504828972720546 15.250316448569043 15.727109005117878 0 4 0
501 151 24 0 44.62333520256997 18.995633026107033 18.33245020733321 0 3 0
546 196 24 0 49.80403624231136 18.473414338798776 17.765490031077924 0 4 0
1449 1099 24 0 53.254708037681624 18.135511972028247 21.352903814632572 0 2 0
2169 1819 24 0 54.635673201041946 17.576304458490192 15.887796859768768 0 4 1
1725 1375 24 0 63.33948109617649 16.094920878378925 14.95520640829441 0 0 0
1172 822 24 0 58.65681095362511 16.815416732262943 20.13235066321546 0 1 0
959 609 24 0 61.38262314423379 21.12705208955808 16.319322620932038 0 -1 0
1645 1295 24 0 56.11592455578721 21.390700342791984 19.07166026922955 0 0 0
1556 1206 24 0 60.82588132038289 20.937807668497733 21.24274038817285 0 0 0
1140 790 24 0 69.69794879574694 16.27314579897009 14.643483375548875 0 0 0
1696 1346 24 0 64.28874492952845 17.525939983192963 20.527387442158197 0 -1 0
1520 1170 24 0 68.2467590081334 20.102634068294048 17.298696197348775 0 0 0
903 553 24 0 76.53690134692464 14.837674504459327 21.12633686949119 0 -3 0
1535 1185 24 0 73.37335757483977 18.663588663827888 17.565157529402608 0 -1 0
913 563 24 0 78.27967641908063 17.896121692642105 16.10547869288944 0 -2 0
886 536 24 0 77.66119657211114 19.695205874972007 21.014080901491315 0 -5 0
524 174 24 0 42.34218494552453 22.9501856854997 15.977029880131516 0 5 0
508 158 24 0 42.997043462179754 23.028575790009832 21.143333655592308 0 2 0
5074 0 24 0 42.959128639569286 27.573644127762545 18.708487685038726 0 3 0
381 31 24 0 47.37190857724962 25.083263094177372 18.028468163027856 0 1 0
1104 754 24 0 51.93943992801621 23.14973874834754 17.331211235775218 0 1 0
1195 845 24 0 51.893464469457065 28.667705946821737 17.040374047364192 0 0 0
1481 1131 24 0 55.41987612994633 26.805543128319197 20.057071422393353 0 0 0
1318 968 24 0 59.036053095593765 26.557036920365512 14.494020873919602 0 0 0
1303 953 24 0 60.04081304149059 25.204120315740525 19.460337364631688 0 0 0
86 1 9 -1 62.98665204196226 28.21296239222636 21.259999084204686 0 0 0
1378 1028 24 0 65.30050315788837 24.107701037801064 14.630815418142713 0 0 0
1325 975 24 0 65.03439229186316 23.39279794753274 19.75580770245218 0 0 0
1198 848 24 0 69.23704702385103 25.160733779373576 17.7549859254497 0 0 0
506 156 24 0 64.17682206269913 28.520447930121428 16.777348482088815 0 0 0
1452 1102 24 0 71.58093030005197 28.210834215641434 20.727072615661147 0 0 0
1561 1211 24 0 79.86180099953545 23.532679860352157 17.670326129188705 0 -4 0
907 557 24 0 72.79275758150511 27.614514886230783 15.075912787968383 0 -2 0
1491 1141 24 0 72.70050803999604 23.15741593602809 20.49313946601676 0 -2 0
927 577 24 0 76.03204163720979 26.87211199432957 18.69908186378878 0 -2 0
617 267 24 0 47.64637867639933 30.474493318597627 14.652243896366704 0 4 0
1239 889 24 0 43.800782417663434 32.574724111877416 18.385668631327725 0 1 0
822 472 24 0 47.48134022011867 30.08359877099602 19.631405066537116 0 0 0
1442 1092 24 0 51.03992953625015 33.57658660947653 16.428976529501437 0 0 0
78 1 10 1 54.22759130923284 35.017089024446186 19.318416899355594 0 0 0
1578 1228 24 0 49.289887654683945 34.63226157241544 21.177414654324895 0 0 0
1021 671 24 0 59.391047465282334 35.97484842128475 16.762624275213913 0 0 0
1165 815 24 0 56.150783069229234 32.33781720433682 16.0214409689806 0 0 0
1141 791 24 0 59.17176887277111 30.114719839761374 18.769903291488358 0 0 0
594 244 24 0 62.8686604435238 33.07378189999094 18.889227419608602 0 0 0
489 139 24 0 58.19705548974475 34.54568589375616 21.441296027215685 0 0 0
1201 851 24 0 66.3046263506805 33.17279445779832 15.324901552526365 0 0 0
1158 808 24 0 67.17812858127479 30.121860994490383 20.248771690681433 0 0 0
731 381 24 0 67.10855656079205 35.16331756040429 20.041622859908248 0 0 0
854 504 24 0 72.1244970929738 31.991411362222404 17.541610279780055 0 -1 0
795 445 24 0 76.65380499431086 33.08616775370918 17.613201595753033 0 -2 0
1570 1220 24 0 79.54915088452503 29.93159023778704 20.02489895401146 0 -2 0
1446 1096 24 0 41.73267754089831 3.0538517002195604 26.183030023440754 0 5 0
467 117 24 0 44.69466686471936 5.381037788894193 23.061616157193136 0 3 0
733 383 24 0 47.786106386079226 1.7839174551190888 25.172996043970674 0 3 0
2611 2261 24 0 47.93432391217348 6.490021662624463 26.4691290269509 0 4 0
402 52 24 0 50.24245400864152 5.300821690282533 21.983234502363302 0 3 0
677 327 24 0 52.81708572571386 3.9588089931956643 25.985445227812324 0 3 0
1699 1349 24 0 61.163986646803394 0.15167357986665198 28.578377495271333 0 0 0
1153 803 24 0 56.14256112979632 4.64080441445615 21.984484001937478 0 3 0
1033 683 24 0 61.19109912314269 4.710251991711253 22.086611218160453 0 0 0
1124 774 24 0 57.72757069336199 3.2580948251712063 26.43993904850284 0 2 0
921 571 24 0 66.4552372070165 4.733451362999672 21.68194671156248 0 -1 0
1686 1336 24 0 64.25381799288732 3.338426608745126 26.053900711131064 0 0 0
965 615 24 0 69.6529355758913 6.647903993779352 25.004979167461745 0 -1 0
1091 741 24 0 68.85667673345048 2.7151026678589605 28.174006861969474 0 -1 0
1487 1137 24 0 68.93758405036418 0.03879468374274987 22.94428043550577 0 0 0
1728 1378 24 0 72.68496403484727 2.9375220629382315 24.039937092880006 0 -1 0
774 424 24 0 73.06251044852648 5.174904731299922 28.460595302700934 0 -1 0
878 528 24 0 78.19052212999512 3.4989344947736933 25.576020011745687 0 -2 0
1327 977 24 0 75.20403457508162 7.018433549061785 24.305959302077518 0 0 0
561 211 24 0 43.78565272221096 8.225775721816944 28.163386600220125 0 3 0
410 60 24 0 41.80239948504887 9.807360997668203 23.658286636892605 0 3 0
1377 1027 24 0 46.13700020255356 12.174571140002836 26.305645401967016 0 4 0
429 79 24 0 40.60852072600872 12.354504527026316 27.728386374620772 0 4 0
431 81 24 0 54.85941961972593 13.279213968852734 21.858501245929205 0 3 0
1112 762 24 0 54.810682450549265 8.708737195585137 24.58841262087409 0 4 0
1248 898 24 0 50.841509061300684 11.341304776639204 24.894308905920244 0 4 0
1475 1125 24 0 63.481841806747845 13.248630043524786 23.511556716965984 0 0 0
749 399 24 0 58.67323086076886 12.605209916600058 26.068975346745756 0 0 0
474 124 24 0 60.421479014534206 8.107181018012787 25.548368541747525 0 1 0
1652 1302 24 0 65.60184791108315 9.366725676745167 25.187863504703444 0 0 0
1642 1292 24 0 69.82087739059244 10.19356557923832 28.743757908038255 0 -2 0
1748 1398 24 0 73.2100802672423 11.418917589948935 22.92779248543951 0 -1 0
1485 1135 24 0 77.8816090162679 11.904674494496412 25.13934037505358 0 -3 0
976 626 24 0 74.76141786972153 10.04697658972955 28.598148246840715 0 -2 0
1292 942 24 0 40.06389471674036 14.732299152591523 22.629847650548772 0 5 0
672 322 24 0 43.282282702144926 18.521104166564964 23.385370090300853 0 4 0
625 275 24 0 40.33363963808535 17.85746267523902 27.329533273564177 0 3 0
1098 748 24 0 48.15080369015772 21.548591810041682 21.615192003044413 0 0 0
922 572 24 0 53.682462943433165 16.034122956527806 25.838745829847177 0 0 0
592 242 24 0 48.3715754520884 16.671605199093108 23.94690809270083 0 3 0
1749 1399 24 0 50.65791446684627 20.80766296565259 26.346524267390066 0 0 0
1346 996 24 0 56.735038986884504 20.209249392615206 24.000163540076752 0 1 0
1216 866 24 0 60.635654793000626 16.791519770262063 24.65825065979187 0 0 0
1296 946 24 0 61.35095401673878 21.412919600769076 25.873706755558004 0 0 0
1782 1432 24 0 69.32679621560614 14.451316256852227 24.285264698183067 0 0 0
1372 1022 24 0 65.4622114173892 16.940798597948465 27.073130475286522 0 0 0
1423 1073 24 0 68.97965017167849 20.261737980846952 22.77606907642581 0 0 0
1444 1094 24 0 70.06915677425384 18.239916189272556 27.016836006497307 0 0 0
127 1 4 0 67.33285425011684 21.118472293509537 28.793096817766834 0 0 0
782 432 24 0 73.2238718093049 17.950153262183363 22.418136087723813 0 -2 0
1771 1421 24 0 76.68729969999224 17.59892360177839 26.024057958890314 0 -1 0
993 643 24 0 73.14749777293224 14.482791014701899 28.07021123989798 0 -2 0
1435 1085 24 0 45.58098472131125 22.746905942882158 25.6552049570359 0 1 0
1342 992 24 0 40.303002639433195 23.33385907924045 26.096274572256654 0 5 0
624 274 24 0 44.69447978427331 27.055531333719944 23.909483386761078 0 1 0
332 1 7 0 44.50024185826654 25.379559020864388 28.535706499433758 0 0 0
1705 1355 24 0 40.08957961082857 28.33525100737593 26.647679712140434 0 0 0
1709 1359 24 0 49.67335759221896 26.41651743051875 22.88595414479332 0 0 0
1767 1417 24 0 48.03951631531152 26.871561548928053 27.48007986573578 0 0 0
1538 1188 24 0 53.15527536115636 23.10882599329313 22.46540747973109 0 0 0
1587 1237 24 0 54.29631243113247 27.03233930656273 25.1512348039798 0 0 0
132 1 8 0 63.72585418580306 27.8374702470321 21.69788354913623 0 0 0
1286 936 24 0 59.772373625566416 26.285209152378748 24.33385756920985 0 0 0
1309 959 24 0 57.855805345322544 24.643089540962798 28.48568656673707 0 0 0
128 1 14 0 63.72424099334571 24.3951348484064 24.01503181390381 0 0 0
130 1 11 0 63.99188807414918 27.239430986778245 21.786799690042844 0 0 0
129 1 8 0 65.4647202810422 22.83186055696668 26.04170498793836 0 0 0
126 1 3 0 65.89691071239814 22.68199939034948 26.036119036517885 0 0 0
1222 872 24 0 68.4335308264697 25.35373650102611 22.91720201659255 0 0 0
131 1 3 0 64.96742295266043 28.027340069963493 24.884396009659206 0 0 0
133 1 10 1 65.31182338953566 28.419358405315155 25.54528853660968 0 0 0
1257 907 24 0 69.35700893446456 25.376906550499726 27.620828746460543 0 0 0
1800 1450 24 0 78.40791074543324 24.917498963218716 27.56417748160253 0 -4 0
972 622 24 0 74.88605149038075 21.96205740422822 24.895215939738545 0 -2 0
875 525 24 0 78.30814733661863 24.641041669404864 21.99733428670504 0 -1 0
492 142 24 0 74.05252135561527 27.35866471052518 25.095836316414022 0 0 0
1308 958 24 0 41.9754900302058 31.454275183612324 23.19150472368837 0 5 0
720 370 24 0 41.589213886567784 34.35142991656517 28.389688365853466 0 5 0
1650 1300 24 0 45.75015370669504 34.97638422797474 25.307618872370316 0 0 0
752 402 24 0 44.48939985287585 30.34895133187641 28.105185154255715 0 0 0
1373 1023 24 0 52.6596969491537 30.792979011692225 21.709140193848345 0 0 0
485 135 24 0 48.50611120511904 30.892309658999135 24.79473543029631 0 1 0
76 1 3 0 52.77319530084796 34.50503626978826 24.993298592974156 0 0 0
72 4 17 0 52.58374238604387 30.664746204714586 25.475012424327875 0 0 0
73 4 3 0 53.16359413801272 31.704351869352426 26.8949076349193 0 0 0
61 1 6 0 48.13927831806939 33.74204245818131 28.404902309831805 0 0 0
80 1 13 0 53.26297736120006 34.47864280050292 23.939396257549408 0 0 0
62 1 7 0 50.783592769933996 33.6737352707497 27.838917868836894 0 0 0
71 4 17 0 52.50394332225099 29.685917862688154 28.20757450451045 0 0 0
70 3 18 0 54.83797112446737 32.1148427446896 27.563718407823572 0 0 0
79 1 3 0 55.91423403216655 35.4726958946301 25.95980424270209 0 0 0
82 1 11 0 55.705683319951 34.997630398410934 25.825102034517286 0 0 0
75 1 19 1 56.94265114124421 30.365393211605717 23.063868659355833 0 0 0
83 1 3 0 58.68629191890335 30.80340626606217 24.78054667803151 0 0 0
74 4 8 0 56.357047526268154 31.361960678540665 26.23475195314089 0 0 0
85 1 3 0 61.944157079021146 31.01232338005387 23.036625657166507 0 0 0
88 1 8 0 62.10093806629202 30.85229749435836 23.52033068414264 0 0 0
81 1 3 0 57.73547619758994 32.913328064364386 26.708507939619764 0 0 0
84 1 4 0 57.18734659108285 32.815294123428814 27.508247974542275 0 0 0
1295 945 24 0 62.44256420917767 31.85860573484862 27.88653280679074 0 0 0
373 23 24 0 61.25012665937597 35.79992999059675 25.450551864665325 0 0 0
90 1 14 0 66.00447552301459 34.367682723162595 26.02911353228817 0 0 0
89 1 19 1 65.1536920808874 32.95647487829666 23.368476146255823 0 0 0
87 1 3 0 64.82020742352856 32.85013887794057 23.821811858700634 0 0 0
134 1 3 0 67.44485468313663 30.43259305917798 26.005891563703955 0 0 0
93 1 8 0 68.51532536330126 32.05335940615763 28.577271062141993 0 0 0
138 1 13 0 67.63950171128727 32.8604191878973 27.117491610976966 0 0 0
135 1 8 0 69.9686024649648 31.083383722784557 28.06503465863789 0 0 0
136 1 19 1 70.02016014539826 28.96401660476434 25.322015406378235 0 0 0
137 1 3 0 69.9818031312208 30.069817581183543 28.395164179941034 0 0 0
1244 894 24 0 70.38213086351415 32.62005466445595 22.781355626752426 0 0 0
478 128 24 0 71.43562392178652 35.32176724053692 26.947082311753302 0 0 0
91 1 8 0 66.94341000755269 32.65885659819676 28.47054490632286 0 0 0
161 1 8 0 79.59357624240062 35.28303501664092 28.185999627392437 0 0 0
163 1 6 0 75.37653125860443 31.036548527662884 27.43960415228823 0 0 0
1711 1361 24 0 75.3704628014875 31.259264910129463 22.4835191392752 0 0 0
160 1 3 0 76.64908432618698 33.92960769044846 26.73636583294084 0 0 0
1809 1459 24 0 79.62177168486991 34.159645572655265 22.68725452558065 0 -1 0
164 1 8 0 72.69036839975513 30.694893523835955 28.482737363510964 0 0 0
1184 834 24 0 79.3010140453728 29.85782851402873 24.977288613227458 0 0 0
158 1 3 0 79.21995380035483 35.04542785875237 28.734438467088466 0 0 0
581 231 24 0 45.46008716618103 3.386076209507174 29.431375027971725 0 3 0
566 216 24 0 41.503637293830366 3.9752453932313436 32.060502301748976 0 4 0
1882 1532 24 0 43.78819932880769 4.806396942008537 35.923692874271765 0 4 0
1249 899 24 0 50.48900609296485 1.6756610210741072 30.05231458206356 0 3 0
1997 1647 24 0 48.8940806364247 4.1369116929464855 34.05552458641888 0 3 0
491 141 24 0 55.22196015647899 2.6100320301414777 31.12656040632369 0 1 0
2798 2448 24 0 51.982702433715794 6.8884395358688835 30.219495299088422 0 5 0
2907 2557 24 0 55.696290695345006 6.267921474458703 35.416434309761485 0 4 0
948 598 24 0 61.17590441777074 5.499959769219683 29.615599474370253 0 -1 0
1704 1354 24 0 60.26576091463407 3.1356912146106453 33.931590676449424 0 0 0
1467 1117 24 0 64.70251914962041 2.0122566202248118 31.132337766066993 0 0 0
1626 1276 24 0 65.96269834113222 7.107052920780137 29.28392273506702 0 0 0
1617 1267 24 0 69.5577800439722 5.974933661971235 32.502715277179064 0 -1 0
1569 1219 24 0 71.09048523385123 1.147104433116443 32.29008130648673 0 -1 0
5212 0 24 0 65.20578471532447 4.30925575787813 35.83151142865888 0 -1 0
952 602 24 0 75.03812393684035 0.9979973110045463 35.995567526414035 0 -1 0
754 404 24 0 78.40844257544953 6.832154477650535 29.670139285406965 0 -7 0
1084 734 24 0 76.42468561493207 1.0126451748843697 29.668927351404335 0 -2 0
5039 0 24 0 74.99833028912687 5.046469565388062 32.925455608041354 0 -3 0
627 277 24 0 46.444768999372215 7.549687228822669 32.04350113790015 0 2 0
2192 1842 24 0 41.89459933285511 9.214850257974705 32.66882154933579 0 4 0
717 367 24 0 48.89956162836892 11.431106510356072 29.988385847092086 0 4 0
556 206 24 0 53.597761743020406 11.876834920882189 29.21528434848279 0 1 0
1967 1617 24 0 52.30116418800234 12.101707092250606 34.02471471501071 0 1 0
1563 1213 24 0 61.01536254079223 11.006585626543897 29.770434584454353 0 0 0
1110 760 24 0 57.00141059267744 7.876215155518957 29.723710899732247 0 4 0
1657 1307 24 0 62.766029649345114 8.108328858453246 34.02989686138542 0 0 0
1128 778 24 0 57.69897548387919 11.2104067090035 33.45487808747351 0 0 0
1715 1365 24 0 65.31014015209112 13.052819599315571 29.481170351053738 0 0 0
2334 1984 24 0 67.63661055053586 10.20289089665342 33.637248263816744 0 -1 0
1218 868 24 0 64.65730592523904 14.290309822829808 34.898736528587406 0 0 0
925 575 24 0 72.75516761662458 10.040743714966691 32.97869391441449 0 -5 0
1580 1230 24 0 78.68890942131469 10.534245374914507 33.49183406408615 0 -6 0
1953 1603 24 0 44.123477174439806 14.513781929203189 31.25645633563747 0 5 0
751 401 24 0 46.31584418501316 17.900475375835683 28.98182037802081 0 0 0
401 51 24 0 44.33574230040531 18.856947030695515 34.00752045440871 0 1 0
418 68 24 0 43.00821270787427 21.351390567430652 29.97726742913955 0 1 0
2799 2449 24 0 48.18299416736482 14.746451066243457 33.85677141365575 0 1 0
1768 1418 24 0 51.09613559073773 16.403352113814904 29.736542332433384 0 0 0
757 407 24 0 49.818484583471985 19.532938709813166 34.01082997929411 0 0 0
1751 1401 24 0 54.3638421406796 17.378803941880783 33.60993725270957 0 0 0
1743 1393 24 0 53.18442241553138 21.457782967588027 30.70154074970478 0 0 0
118 1 3 0 62.99391137958029 19.281993019070494 35.9003252789013 0 0 0
1606 1256 24 0 56.96182335752591 15.262988138368565 29.881354029016443 0 0 0
1143 793 24 0 57.984473487772846 19.766310616128074 28.903595362362218 0 0 0
1225 875 24 0 58.42381014885387 20.502083645150133 33.77085169588683 0 0 0
1122 772 24 0 62.21930742782058 16.15163943026471 31.153766329363968 0 0 0
1173 823 24 0 62.444300668887614 21.10866514619627 30.616531971452048 0 0 0
2971 2621 24 0 58.460815458297844 16.022719055370715 35.801577552933004 0 0 0
845 495 24 0 69.75170903079704 15.055645102225922 31.435361108363388 0 -2 0
125 1 8 0 66.33950632278965 18.65298862721134 31.71464545044442 0 0 0
121 1 3 0 67.04111335678675 18.944444782132976 31.791981304185892 0 0 0
120 1 11 0 65.55052879185607 20.68799129934748 34.5120213186832 0 0 0
122 1 8 0 70.38409206511082 19.12243151712666 31.24973399594112 0 0 0
124 1 14 0 66.72722574829113 20.650391009949146 29.10151596795789 0 0 0
1529 1179 24 0 77.62686926086532 15.221722562113605 35.612684954313366 0 -5 0
3160 2810 24 0 77.51000712924196 14.855782016141477 30.077049704524978 0 -6 0
123 1 10 1 73.61832225338881 20.125011624126667 29.11514637488857 0 0 0
2529 2179 24 0 74.05049674001133 17.114404828442545 32.90776989534095 0 -2 0
2961 2611 24 0 79.27229155750413 19.66534754129334 34.62586480640561 0 -1 0
944 594 24 0 77.83586845175806 20.488541978981743 29.975321062490245 0 -1 0
335 1 3 0 42.62395404566219 25.84881897411483 35.63863424217326 0 0 0
333 1 3 0 44.374011147636246 24.319459507759994 34.011901851913194 0 0 0
336 1 13 0 44.54428572166612 23.187286036765382 34.346460199245655 0 0 0
330 1 9 -1 44.45849683298448 24.612638199881637 33.042371187578404 0 0 0
331 1 6 0 44.82850108018056 26.424446290602823 31.025683346158406 0 0 0
1681 1331 24 0 47.95719190084192 22.66338834619031 30.772724779222614 0 0 0
2987 2637 24 0 40.31487373142611 21.79916618632926 34.51531468335536 0 0 0
329 1 3 0 44.020138828817096 28.24624128656842 33.401212977001656 0 0 0
1539 1189 24 0 52.5745341192842 27.050521987960057 35.52332562291342 0 0 0
3262 2912 24 0 53.71692460937495 22.271437945901322 35.753680739165155 0 0 0
1801 1451 24 0 48.49813413517519 26.77070478921716 33.11334218729976 0 0 0
1656 1306 24 0 52.31205608673353 26.184854436773474 30.023663151138535 0 0 0
1148 798 24 0 62.727629273953085 25.90378624417458 28.8026010324024 0 0 0
1641 1291 24 0 56.67071317777363 25.726332640232794 33.180836625924044 0 0 0
3198 2848 24 0 61.22479953968583 24.736260438889282 33.87645930575029 0 0 0
110 6 16 36 65.87490328292975 21.826131189545677 35.22521366622359 0 0 0
1115 765 24 0 66.4395238092846 24.410103721892142 31.744504545963924 0 0 0
111 6 17 0 70.24750943620104 22.84830774846879 30.757569421101994 0 0 0
2724 2374 24 0 69.8632679788243 27.466419924392213 32.94640162391069 0 0 0
2975 2625 24 0 70.02166302718162 22.709022436491107 34.93236335667716 0 -1 0
113 6 17 36 67.01690439758126 25.750234599447797 35.8337352525929 0 0 0
1187 837 24 0 74.57077862572439 22.100354219997072 33.758052356316966 0 0 0
1433 1083 24 0 73.62802908280169 25.036900460565885 29.77610004988794 0 0 0
2601 2251 24 0 77.8749653585978 26.06076766489774 32.95670584626274 0 0 0
170 7 17 0 74.4046925529527 28.008949625102314 35.99500821945506 0 0 0
348 18 17 0 44.6731362269418 34.02364278024677 35.630510449601886 0 0 0
328 1 7 0 40.99551102673561 30.614443460341864 29.88231613565677 0 0 0
54 1 8 0 43.21273533015606 29.26133586895128 33.84021916403962 0 0 0
327 1 6 0 41.301172383569096 30.184287969759307 32.51282582614459 0 0 0
53 1 14 0 46.39730688100921 30.553559174170648 34.160210698673346 0 0 0
347 18 17 0 41.83642569065533 33.37264429937729 35.01004630120373 0 0 0
349 18 23 0 43.61403985016706 34.26433265459469 32.991630029329755 0 0 0
55 1 6 0 46.52852975146808 32.09242007263136 31.538200956766037 0 0 0
60 1 4 0 47.208750494651376 32.008305990848626 33.03616629559116 0 0 0
56 1 7 0 46.75922141827244 33.162387622542646 29.09364055754795 0 0 0
63 1 3 0 50.49026928820039 35.53412216028495 28.964731403292937 0 0 0
827 477 24 0 48.70921627719639 35.66334744476954 33.96213655986705 0 0 0
69 3 3 0 53.53350039033597 34.145822027686364 29.6863053391476 0 0 0
59 1 3 0 48.9600029473953 30.950252189297025 30.253825892733545 0 0 0
52 1 4 0 48.7641684678582 31.299957825756607 33.28696744779042 0 0 0
57 1 3 0 49.485755377039126 31.33821869252377 33.46917010683456 0 0 0
1708 1358 24 0 53.377077214383334 34.48254942883541 34.66575235033236 0 0 0
1361 1011 24 0 54.03740843435733 30.26581779715063 32.29804915204048 0 0 0
211 1 3 0 61.65196443495141 35.74108560341781 35.91744300716861 0 0 0
1408 1058 24 0 59.5023506405488 29.38330158757588 31.021202383660892 0 0 0
1302 952 24 0 58.16450403195954 32.467865851726955 34.61474557688969 0 0 0
1228 878 24 0 62.39346852561014 30.28622347418954 35.21964852856386 0 0 0
210 1 8 0 65.38295948860717 35.86756218775039 33.63372825153613 0 0 0
94 1 3 0 65.11625109888051 33.884516509129206 32.43072148442317 0 0 0
97 1 2 0 64.75182783976086 34.213424071828356 32.92841920128749 0 0 0
144 1 4 0 68.85698921203132 32.53026769911508 34.51848263941402 0 0 0
142 1 4 0 69.68377740379958 34.67928307924352 33.205541766761456 0 0 0
96 1 3 0 67.18611605144514 32.34290359220167 35.22015449860747 0 0 0
1352 1002 24 0 65.6679161571706 29.406502958520218 31.009947739204527 0 0 0
212 1 4 0 64.4549709799752 35.31315472875813 34.02959386507601 0 0 0
92 1 6 0 66.23221097243972 33.81155556292771 29.23737092992504 0 0 0
139 1 3 0 69.61860293641695 31.873289580390427 31.078572686904213 0 0 0
141 1 3 0 71.5111298927262 31.893530833310017 33.80635777493896 0 0 0
1300 950 24 0 78.88535934961745 29.900610665212476 29.673273943535186 0 0 0
156 1 3 0 79.4016529334835 35.839735968474514 32.451053020607475 0 0 0
166 1 11 0 75.7378880003177 30.57550502607539 33.051673438981226 0 0 0
157 1 9 -1 78.88298074141485 32.88969930514693 34.58269048145384 0 0 0
173 7 6 0 75.89217565080958 33.12113693042621 35.57952963991094 0 0 0
174 7 8 0 73.18810960316685 34.15812972385386 35.16426123409481 0 0 0
168 1 15 36 78.47092226130576 33.522274720460196 32.84139370304571 0 0 0
140 1 4 0 72.68696314548595 31.02931634267223 32.29018589931365 0 0 0
154 1 3 0 78.92738416813107 33.1550474992891 34.99655648663619 0 0 0
165 1 3 0 74.14166492377292 29.879300196050313 30.541761493200973 0 0 0
167 1 3 0 76.0445398766361 30.802174160156202 33.316656964677634 0 0 0
525 175 24 0 74.68331978284245 34.980114275582736 30.699476986215558 0 0 0
1887 1537 24 0 47.383687926089365 5.672594299478087 40.52334024658434 0 3 0
2817 2467 24 0 44.07566062218551 2.146171852575192 40.61401121584995 0 5 0
2051 1701 24 0 42.84304799421134 6.896144539307044 42.00154648722161 0 4 0
2164 1814 24 0 40.93544320060015 0.4410961058759694 36.17612481656018 0 3 0
2090 1740 24 0 52.170039393965965 3.8491059756737065 38.00764683365946 0 3 0
2174 1824 24 0 51.790944774355815 3.4397046805647475 42.95923674079168 0 3 0
2094 1744 24 0 48.491176660115286 0.3681041420754628 38.504250962818084 0 3 0
2229 1879 24 0 60.880812090827 5.105819788489093 38.44276323535985 0 0 0
2915 2565 24 0 56.58498318003787 4.24451434091509 40.31767141221477 0 0 0
2323 1973 24 0 62.996558779656304 7.152883045401711 43.05118677899794 0 -1 0
3094 2744 24 0 56.28025950803526 1.244076337324802 36.01736533564931 0 0 0
3072 2722 24 0 71.54217322006798 4.756131889152035 41.78226099372499 0 -1 0
2957 2607 24 0 65.62125755751538 3.023813869931001 41.067800648937386 0 -1 0
1613 1263 24 0 70.63304064429221 3.1451969585560207 37.0590724860202 0 -4 0
2411 2061 24 0 70.62222462321654 0.06866242809162082 41.417735596685425 0 -1 0
3126 2776 24 0 79.31257724643115 3.776401285627057 40.88402436289123 0 -1 0
2979 2629 24 0 75.03214051698895 5.718765769201749 38.232559702130466 0 -1 0
2964 2614 24 0 75.63479996738337 0.5289182229184248 40.91412391057087 0 -1 0
1027 677 24 0 79.55803694819654 0.09692206319471415 38.24954865376406 0 -4 0
1707 1357 24 0 79.16148698963205 5.45416595076987 36.02019718182286 0 -4 0
2640 2290 24 0 44.716300706428655 9.39920925115871 37.319744684685205 0 4 0
1951 1601 24 0 41.409285023339024 12.845580893731418 40.52661532118212 0 4 0
2774 2424 24 0 40.008484605362156 8.978740327970451 37.24975003453232 0 4 0
1991 1641 24 0 48.3054465487812 12.79353539630812 38.24271499155836 0 1 0
2071 1721 24 0 52.903568569661644 7.648128799454142 41.257686582418515 0 3 0
2208 1858 24 0 50.356424956348214 14.264326935938904 42.61584802579603 0 0 0
1719 1369 24 0 55.20385096177833 10.84057892939085 38.521478554457495 0 0 0
2125 1775 24 0 49.966704906304656 8.43793742701377 36.55087389885487 0 3 0
2366 2016 24 0 58.79220234733093 8.890245139795065 42.033891135088055 0 0 0
2605 2255 24 0 60.21489015137558 11.526423114307676 38.27763999373612 0 0 0
1738 1388 24 0 70.56926442995838 8.124156296768616 37.483008594083174 0 0 0
3070 2720 24 0 65.3874021972144 8.73692830433688 38.70960349874055 0 0 0
2663 2313 24 0 68.43003289751734 8.536674612665367 42.07414572903097 0 0 0
1406 1056 24 0 68.41918925799239 13.265023661532611 40.46343681692075 0 0 0
2228 1878 24 0 64.29858728611535 12.012864934721279 43.089610875077376 0 -1 0
2480 2130 24 0 71.14538418217461 13.728757398486664 36.71026078163986 0 -1 0
3175 2825 24 0 74.01510748997858 9.680630456999182 41.66711705499899 0 -1 0
917 567 24 0 75.52307473203896 11.082897939932845 37.23283483685484 0 -2 0
3178 2828 24 0 79.25861296951479 8.904210112937797 41.52891525104319 0 -4 0
2960 2610 24 0 73.55063410975183 14.348980480521952 41.28121980495977 0 -1 0
1185 835 24 0 78.65755205846511 13.771899002804611 40.030156080765174 0 0 0
1982 1632 24 0 45.59611140008376 15.768330762229127 41.39617636087337 0 3 0
1673 1323 24 0 42.504990939594705 21.228666496928298 38.81772430298258 0 0 0
2682 2332 24 0 43.516755730598554 14.827719431901393 36.28132878490538 0 4 0
2364 2014 24 0 48.401936286394026 18.793846998374214 38.79618598525417 0 0 0
3199 2849 24 0 53.04857141762048 15.324211414355405 37.915730896062634 0 0 0
1817 1467 24 0 51.82317078321677 18.71735280570247 41.81212798828842 0 0 0
2740 2390 24 0 55.85479248205589 19.267995542119117 39.132204413470305 0 0 0
2431 2081 24 0 57.89549866203368 15.045361692558373 40.840701780019906 0 -1 0
117 1 5 0 61.04857593620139 18.403114243696574 38.00116676095776 0 0 0
3200 2850 24 0 60.0403929951592 19.309793727484816 42.5742640535819 0 0 0
2854 2504 24 0 63.55964218514545 15.269984615441517 39.80575554180586 0 0 0
116 1 3 0 63.09200241704581 20.111935956956483 38.88074922583209 0 0 0
119 1 4 0 62.14804330724064 21.007009782217892 38.702313316894795 0 0 0
2658 2308 24 0 67.61878609244914 17.782094093509915 41.188907046210275 0 0 0
2812 2462 24 0 71.20851488025674 21.18319461817522 39.607175511677326 0 0 0
2645 2295 24 0 68.69170291752046 18.061634948781236 36.4857527660892 0 0 0
2922 2572 24 0 75.02618326325762 18.796113419453455 37.620348787347965 0 -1 0
3040 2690 24 0 75.48450565915797 18.64840623459656 42.38160480509064 0 -1 0
1931 1581 24 0 41.8944412929462 24.866792361491083 42.433186979011936 0 1 0
3166 2816 24 0 46.28227702151126 22.32046683008765 41.685412741132694 0 0 0
334 1 21 0 43.2581423413822 25.864982597231432 37.41545356530764 0 0 0
337 1 3 0 41.58593615033394 28.149847959455887 38.22418409543876 0 0 0
42 1 8 0 48.12547346265831 26.62514089670487 39.95700225543033 0 0 0
1488 1138 24 0 48.42908435395129 23.37708331317502 36.77109485352824 0 0 0
3133 2783 24 0 51.78091296266706 23.262399253135875 40.38438916207987 0 0 0
43 1 3 0 48.30722708154674 26.66467919263751 40.79218049156416 0 0 0
39 1 3 0 54.8250770527561 26.915187401999763 40.148064717150994 0 0 0
41 1 14 0 51.18290036671029 27.72125097082897 39.78345166138914 0 0 0
34 1 12 -1 53.92060583783541 26.965852924568182 42.80587847853334 0 0 0
44 1 15 36 49.93302684486007 27.747385676914195 42.89891574974346 0 0 0
37 1 6 0 55.79405656477158 24.866923735582652 42.36535677510841 0 0 0
3091 2741 24 0 58.567645863657205 23.238169054868674 38.166513370207845 0 0 0
1497 1147 24 0 58.15390819129033 28.29380554683197 37.02482677581187 0 0 0
36 1 13 0 61.571272763922074 24.961091828948184 41.09768121646034 0 0 0
106 5 3 0 62.77901202716087 26.38358637647037 38.26262880929357 0 0 0
109 1 15 36 62.88430111098802 22.0530359296053 36.75036901976698 0 0 0
2715 2365 24 0 59.02012626447801 28.52548319273554 42.361126886336095 0 0 0
114 6 3 0 65.78600036501791 21.79150704501209 38.40430301349822 0 0 0
112 6 17 36 64.34847920970505 25.85221809210387 37.07376315795814 0 0 0
102 1 3 0 64.47417449205719 26.67800804952906 41.239686619160715 0 0 0
115 6 12 -1 67.55992166931442 25.13423857871514 39.767242315607476 0 0 0
108 1 3 0 65.3079939034737 24.475959676132995 36.67993043993125 0 0 0
100 1 8 0 68.12656019008664 24.431026596457617 40.785517166120165 0 0 0
99 1 3 0 67.34610577279147 27.163610417036978 39.4546855821058 0 0 0
2791 2441 24 0 64.75833634336342 22.262718823834426 43.16580330041312 0 0 0
103 1 15 0 67.26851824117 25.472171876649522 42.826451934624416 0 0 0
2606 2256 24 0 70.6939705218372 27.692277079924153 43.10192176406167 0 0 0
2596 2246 24 0 72.14163074524593 25.697338955448046 37.64398425479568 0 0 0
1783 1433 24 0 77.39716134595827 23.39499761687311 37.557420240192556 0 -1 0
2567 2217 24 0 74.83884615314531 25.502028715662156 41.67369293511686 0 0 0
345 1 3 0 44.256253101668094 35.644455083785076 36.287205602905004 0 0 0
49 2 3 0 46.54217028226649 29.008340490638933 39.49835439299363 0 0 0
338 1 5 0 42.819518573146354 28.854802788746134 40.47928689148948 0 0 0
339 1 3 0 41.891828335062876 31.19103177897616 38.623718712710094 0 0 0
344 17 5 0 45.720945165932534 29.723169333059058 38.030405402883936 0 0 0
346 1 15 0 42.84232025663052 33.138399139943814 37.81864983954054 0 0 0
343 17 3 0 44.9575702497932 32.54751330534758 37.28491980673415 0 0 0
340 1 15 0 44.34106949418276 33.28002700932829 39.198297503568725 0 0 0
341 17 16 0 46.82816079010462 34.241667074301084 40.96899365267764 0 0 0
2247 1897 24 0 42.97655037310045 32.1966114087404 43.086025373985116 0 0 0
264 1 7 0 46.987041491938825 30.660508967852913 42.17175424251499 0 0 0
261 1 3 0 47.53716201169009 31.362484497483024 41.00565282128094 0 0 0
342 17 20 0 47.252721168764985 33.47312064043157 38.43706240343602 0 0 0
5038 0 24 0 40.31839540633815 35.9571527129766 38.877584820121164 0 3 0
51 1 3 0 48.710159758314354 30.084959932468678 36.90751083901064 0 0 0
50 2 13 0 49.285832037014195 29.957614677771733 37.25980983164478 0 0 0
45 2 16 36 51.46200311550249 28.965334168401217 40.12999411358994 0 0 0
259 1 3 0 49.20668338043216 33.806082514707356 39.893937843108496 0 0 0
262 1 9 -1 50.71246257973899 32.83995252938199 40.25471140973654 0 0 0
260 1 4 0 50.52772446691692 32.78998227446029 42.87443239161483 0 0 0
1784 1434 24 0 54.081796026247 30.863325605317744 37.84233052672688 0 0 0
48 2 17 36 54.129644543929345 31.283471686254202 42.22430959682523 0 0 0
18 1 7 0 52.58456336345273 35.40333298595854 39.802934290302574 0 0 0
17 1 6 0 52.426984468119485 34.580261288594144 42.36929721501406 0 0 0
58 1 9 -1 49.46965011913944 30.450046165360767 37.041881034820044 0 0 0
46 2 17 0 54.04977882996639 30.84528500527721 43.14480689109266 0 0 0
29 1 4 0 55.41504868545623 35.16166571184866 42.436231061406 0 0 0
16 1 4 0 55.88759062628309 35.393479967944096 41.86452179007437 0 0 0
15 1 3 0 53.30770177105577 35.324819046083654 39.62907479348413 0 0 0
13 1 6 0 56.046660529161095 35.01963882801491 38.591076704757896 0 0 0
3215 2865 24 0 59.61475231462393 32.757555553865835 39.47401800089145 0 0 0
107 5 11 0 62.66027764483102 28.837172690808593 40.06163513406068 0 0 0
12 1 7 0 57.496420764538605 35.51115757502333 37.23479314169113 0 0 0
220 1 8 0 64.46803834216942 35.84336270714867 40.66891981112516 0 0 0
213 1 11 0 64.07766858237274 33.848185233619375 37.983700544909595 0 0 0
2031 1681 24 0 69.43940773095744 35.67656123515337 37.57285229199765 0 0 0
214 1 11 0 64.54221564343166 34.925513390278454 40.70654987717806 0 0 0
98 1 11 0 66.59820332444289 29.467841014934343 37.12160771777139 0 0 0
2788 2438 24 0 67.72303948626721 31.783325588435666 41.49527887937063 0 0 0
143 1 3 0 70.79022241735576 30.93017747554979 37.035816129462006 0 0 0
2622 2272 24 0 77.34218621800767 29.319651571837536 37.99674386090346 0 0 0
150 1 21 0 78.32056853148151 33.647325662581515 40.152958133031824 0 0 0
176 1 8 0 76.22097907721923 32.34987978558748 41.27306625803045 0 0 0
145 1 3 0 72.79391627507741 31.34591552906874 39.20695555362965 0 0 0
148 1 5 0 75.66045305670416 32.81556018484764 41.01779387253405 0 0 0
146 1 5 0 74.09525421066542 29.28618529474944 40.783228215802495 0 0 0
185 1 12 -1 74.34080935516671 33.94382245727008 36.71363884374054 0 0 0
175 1 3 0 76.60474089891633 34.48152040235064 38.52013614503597 0 0 0
152 1 8 0 78.56952835425703 35.51751499581847 38.496172056896874 0 0 0
151 1 14 0 79.00464951756905 33.427819484789424 40.85637079617319 0 0 0
2877 2527 24 0 72.61206322806142 35.7196534397452 41.91052356987082 0 0 0
147 1 3 0 74.37256953285491 30.749175193108265 42.06860384837295 0 0 0
149 1 3 0 77.69796128601679 30.509414693518025 42.89153060968737 0 0 0
1956 1606 24 0 47.648375686732386 0.9936373812736038 43.48756526696037 0 3 0
2629 2279 24 0 42.35486330731544 3.0478545630418887 45.5105584680075 0 3 0
1969 1619 24 0 47.64825826435337 5.587997260254159 45.815109587334476 0 3 0
2801 2451 24 0 46.3631959931384 3.6023639546503645 49.89246712446605 0 4 0
2421 2071 24 0 50.40194253587613 1.853486597135881 47.70709828445812 0 1 0
2790 2440 24 0 54.12141752389894 3.9376811999196835 50.00593163962724 0 1 0
3143 2793 24 0 55.57025326350565 6.645697856759391 46.276272187373486 0 -1 0
1944 1594 24 0 55.52452928419975 0.846368147755254 45.9316273515939 0 1 0
3244 2894 24 0 60.6692990889904 2.751785050093176 43.73787139395205 0 0 0
2787 2437 24 0 60.487755466249034 4.631321437101645 49.03413500407941 0 0 0
3182 2832 24 0 66.81484892109042 2.087783801147592 48.514108198410746 0 0 0
2521 2171 24 0 67.1182613350193 5.991521169187095 45.91266352770276 0 -1 0
3220 2870 24 0 71.88511466475718 2.0504691570074645 47.54596836194202 0 -1 0
3205 2855 24 0 76.95394939333163 1.744198179126894 45.36259154141553 0 -4 0
3195 2845 24 0 75.80146833412827 4.221079722061907 49.8293053178721 0 -1 0
3101 2751 24 0 77.2767437885666 6.56774670976987 45.47823105133015 0 -4 0
1871 1521 24 0 46.8626337711594 10.868348775648382 43.21917347327082 0 3 0
2110 1760 24 0 41.52181397315005 7.453934912436362 47.69076818858481 0 3 0
2035 1685 24 0 42.51823897554948 12.003789339444669 45.39009881466279 0 4 0
2108 1758 24 0 46.07136239913484 10.058800765703221 48.184561810314925 0 3 0
1962 1612 24 0 41.75160100795182 11.598384419175678 50.274571574180584 0 3 0
2373 2023 24 0 54.960574236505735 11.717464962540166 43.49422238583713 0 0 0
2672 2322 24 0 50.62989815534546 9.484610358260907 46.40616378445436 0 4 0
2633 2283 24 0 54.31508668563936 11.703013334606094 48.608415368345476 0 2 0
2277 1927 24 0 58.631686949519306 10.513002635325751 46.54507018165301 0 -1 0
2592 2242 24 0 63.049796988907104 13.280042446328325 47.92630464620131 0 0 0
3174 2824 24 0 70.45548072969828 12.51304226568063 44.89895552466163 0 0 0
2939 2589 24 0 68.63981176437186 9.896279593889657 48.75891571035805 0 -1 0
3115 2765 24 0 72.11268664387724 7.2588242206646685 46.12672433414779 0 -1 0
3034 2684 24 0 75.6610040268085 11.543048382318261 45.85554536973328 0 -4 0
2204 1854 24 0 78.47385513723097 8.87220170192065 50.149864000032416 0 -5 0
2550 2200 24 0 78.41889442331006 13.969977277488537 49.48951516904932 0 -4 0
2088 1738 24 0 42.553552866834295 19.073912531779456 43.61774559323616 0 0 0
2135 1785 24 0 43.82771764186544 16.091894393307257 47.311054290675166 0 3 0
1978 1628 24 0 42.98987065846447 19.923910958655842 49.92914318983996 0 4 0
2123 1773 24 0 47.59028434280706 17.96925275905513 50.210926829570454 0 3 0
2710 2360 24 0 48.049407811538906 18.51877007800028 44.859575467698 0 1 0
2951 2601 24 0 54.94965539497572 16.030848478379013 45.72505123372313 0 0 0
1848 1498 24 0 49.89928194203042 14.470783482261414 47.40204362480825 0 3 0
2968 2618 24 0 51.757771544707815 20.001367496192138 48.19347982418946 0 0 0
3078 2728 24 0 54.69709658366554 21.03553916592447 45.16365871521581 0 0 0
2963 2613 24 0 57.048084900696175 19.451679582283806 49.781976903117034 0 0 0
2828 2478 24 0 59.50542776351982 15.593570937996391 45.99949879480129 0 0 0
3169 2819 24 0 60.815191487348265 21.12371407492671 47.57324207357246 0 0 0
2821 2471 24 0 70.66010708229946 18.611426319012786 44.854710796645456 0 0 0
2679 2329 24 0 65.74926247169486 17.901016448536332 46.24042470946945 0 0 0
2609 2259 24 0 71.69005253918093 19.81265450665886 49.32541017133678 0 0 0
2557 2207 24 0 70.2357762088417 15.165754801274298 49.07853458484733 0 0 0
3207 2857 24 0 74.4748896434756 16.342539206948338 46.53960837966209 0 -1 0
2501 2151 24 0 77.21897282140688 18.816924056981748 49.24233865422927 0 -3 0
1560 1210 24 0 79.10614606540456 15.591633005985145 44.584836558957214 0 -4 0
2729 2379 24 0 45.397338387570905 22.503723119606374 46.54669327454258 0 4 0
2506 2156 24 0 45.40582496383483 27.49378401251037 44.41482090951182 0 0 0
1950 1600 24 0 46.573396075117095 25.94121728392619 49.607937677612256 0 1 0
2686 2336 24 0 41.51937738716163 27.879682197870356 46.74889033943445 0 5 0
32 1 2 0 54.02625689019438 26.24630548699604 44.06184963508281 0 0 0
3225 2875 24 0 49.81937441319991 24.182361001205432 45.34666397267684 0 0 0
3158 2808 24 0 53.46278980857507 24.750281736685817 49.29858621810484 0 0 0
40 1 2 0 54.528148141720315 25.852817045202748 44.31798819347309 0 0 0
35 1 3 0 58.90617228073352 23.794838682489715 43.47303886482605 0 0 0
38 1 7 0 58.01846563250357 24.311716308584153 43.80882213061055 0 0 0
33 1 3 0 56.641011359121585 25.183076811678486 45.90516902453698 0 0 0
2676 2326 24 0 62.861155153468914 25.773217103189566 45.94231101726127 0 0 0
3084 2734 24 0 59.73019039199753 25.795132941441977 50.35379615418948 0 0 0
31 1 3 0 56.00434870084981 28.48902884964891 46.70175413143021 0 0 0
2689 2339 24 0 67.84497143233978 22.132432186825508 47.99809354296962 0 0 0
101 1 10 1 70.0106240661328 23.328882299812175 44.04788302702825 0 0 0
105 5 20 0 66.89831727593278 26.7728232999157 45.49438115759471 0 0 0
104 5 16 0 65.84649620493293 28.2678824958098 43.506707106533035 0 0 0
2566 2216 24 0 71.02417133899775 25.67172731515188 47.750930932116724 0 0 0
2737 2387 24 0 66.03166745798322 26.959485425670593 49.39177608673049 0 0 0
3068 2718 24 0 74.68093632570759 22.36073528560805 46.07876436109985 0 0 0
2370 2020 24 0 78.26624289516796 25.59137359338623 45.15144600909415 0 -2 0
2668 2318 24 0 76.50732259790746 24.13913865719609 50.13829912587405 0 0 0
2450 2100 24 0 46.17077573196928 35.560432753503115 45.63094815685435 0 0 0
3209 2859 24 0 45.2379808972853 31.37600866869527 48.38605219591991 0 0 0
2741 2391 24 0 41.351734998644226 34.53368715688466 47.50198384495242 0 5 0
263 1 6 0 47.728627900545014 31.362105958766612 44.6769462929726 0 0 0
20 1 8 0 49.76928823164413 33.31519144158919 43.82297750142231 0 0 0
265 1 3 0 49.27007783220052 29.261914855625026 47.12327149624459 0 0 0
268 1 8 0 49.97175170656744 30.759324180979824 46.481600278749 0 0 0
270 1 12 -1 50.59322712633519 28.936418542472882 47.63134312060315 0 0 0
267 1 6 0 52.01633671637396 29.217264357252155 47.851850435796635 0 0 0
266 1 12 -1 49.263916999716486 31.620112081575122 44.06682332456437 0 0 0
47 2 17 36 52.718179243052674 30.1462836358606 44.517171878958 0 0 0
3086 2736 24 0 53.76148522235272 32.945115304695626 46.680467976311164 0 0 0
2864 2514 24 0 48.97328881477016 34.34095349547598 49.33657021978377 0 2 0
19 1 6 0 50.69611584235668 35.77881075801163 45.13066878180971 0 0 0
2644 2294 24 0 62.06907079841072 30.329659972597675 48.82074493169403 0 0 0
30 1 11 0 58.03754061974904 31.01773004992053 45.96832201379868 0 0 0
28 1 3 0 57.63733614820811 32.987576479832384 43.79151084711668 0 0 0
274 1 3 0 60.026139191940864 34.63530742216764 47.34168091254536 0 0 0
2882 2532 24 0 62.22104778074954 31.92254846284408 43.44497572864652 0 0 0
273 1 9 -1 58.01022349005191 31.77765618479341 46.198184189027664 0 0 0
275 1 11 0 63.020611344257055 35.02729176960225 46.808462150569845 0 0 0
272 1 3 0 58.345851625253665 33.2082623386781 49.679658906088655 0 0 0
277 1 15 0 60.55224228772549 35.449435632140435 46.70692557525079 0 0 0
2162 1812 24 0 66.48226386669214 31.96275448601441 46.33879740099341 0 0 0
2726 2376 24 0 71.01590156212116 32.07575008410248 44.9281164960597 0 0 0
2697 2347 24 0 69.60275974792205 30.137937165029303 49.81646317999156 0 0 0
1958 1608 24 0 74.72031878025362 28.88151005119456 46.825025231780124 0 0 0
2487 2137 24 0 79.40655429165386 30.135507302848765 48.413288873187106 0 -4 0
177 1 19 1 77.95341120724859 29.94093859992278 43.436679785250426 0 0 0
2200 1850 24 0 75.68440897146671 34.05760266262579 45.74205713090351 0 -2 0
2714 2364 24 0 72.43253355518374 33.93665149350427 49.81850423866096 0 0 0
2809 2459 24 0 41.52751051724185 3.819778325101873 50.84194815190452 0 4 0
2127 1777 24 0 43.92911323072095 3.096844734148838 55.23727002117494 0 3 0
2839 2489 24 0 53.02211397205893 5.8121312214489915 54.33982086496991 0 2 0
2080 1730 24 0 50.83004905488191 0.9397238476618712 52.48952004795532 0 3 0
2772 2422 24 0 48.61956529725218 4.096593404704583 56.39824159631403 0 2 0
2483 2133 24 0 59.29968905285607 5.57181603425357 54.48133813098914 0 -1 0
1945 1595 24 0 58.90939087776025 0.4901100541643537 55.55120080968924 0 1 0
2476 2126 24 0 63.27188188744016 2.127190446493331 52.01183879411937 0 -2 0
2378 2028 24 0 63.173474793648346 2.766470877386258 57.125584326231895 0 -1 0
2365 2015 24 0 68.03078094247913 0.017823754890324773 52.561675705318066 0 -1 0
2445 2095 24 0 67.59395956406398 4.388235227282375 54.70731033111878 0 -1 0
2519 2169 24 0 70.36547310144273 5.378992445121781 50.78333000728777 0 -1 0
3062 2712 24 0 64.94706074116067 6.394099186284873 50.833728485487796 0 -1 0
2936 2586 24 0 74.34058444229568 6.223070296426068 53.911066749992784 0 -1 0
2345 1995 24 0 77.34617703994891 2.353123871492679 57.41172199475998 0 -2 0
2300 1950 24 0 79.49918526350186 2.6330134704565498 52.9525428345189 0 -2 0
3014 2664 24 0 73.49451639752938 1.0631640058978054 53.77796262597019 0 -1 0
2158 1808 24 0 44.09773724870257 7.728905558261635 53.17381592891065 0 4 0
1894 1544 24 0 47.86163495514676 12.694762256549074 51.83109869946582 0 2 0
1935 1585 24 0 40.9082329244912 11.462403842418293 55.15365103718394 0 3 0
1952 1602 24 0 45.49484735348699 13.882334055852482 56.24989411843723 0 3 0
2814 2464 24 0 49.94275957427559 7.85051346431352 50.893365236718374 0 2 0
2856 2506 24 0 49.34420352085333 8.839196382954542 55.61234380139182 0 4 0
1924 1574 24 0 52.53771547209423 11.564373050723852 53.22754862862647 0 1 0
1830 1480 24 0 56.8961705710866 8.426759082397538 51.272584199761674 0 1 0
3059 2709 24 0 57.38505650936216 13.102998581202433 52.183712471392106 0 0 0
2332 1982 24 0 61.827237256211085 10.660011276635261 51.70180502080146 0 -1 0
2751 2401 24 0 59.087735658598554 10.087564085636934 57.36700070045399 0 0 0
3000 2650 24 0 63.427120028306796 8.496982493174377 55.95719123175795 0 0 0
3008 2658 24 0 61.74659534547702 13.711562814250293 55.51038085430283 0 0 0
3152 2802 24 0 69.98796679806647 9.20894691069288 53.84222931099337 0 -1 0
2293 1943 24 0 66.05113779197242 12.965155882685382 52.12066257227887 0 -1 0
3261 2911 24 0 74.09424833487319 11.624022748946677 50.545074421905845 0 -1 0
2434 2084 24 0 78.70599365564816 8.437227224161765 55.64521461724858 0 -2 0
2302 1952 24 0 76.23735415646811 12.739343146381476 54.52102550616466 0 -5 0
2876 2526 24 0 41.67717905245953 16.1383834062181 52.85498553324257 0 4 0
2579 2229 24 0 44.94706389191164 20.69469738354745 54.73208596812537 0 4 0
1843 1493 24 0 41.05347592375461 17.091359305876587 57.58954044461031 0 4 0
2134 1784 24 0 49.830920497446925 17.3845482607456 55.025586500942964 0 1 0
2916 2566 24 0 53.291012921814605 16.244867417876346 50.748451300791785 0 0 0
3155 2805 24 0 53.61436128632932 20.921175930459803 53.71920997254254 0 0 0
2780 2430 24 0 61.022068246256396 17.03460765281537 50.86087145456513 0 1 0
3024 2674 24 0 58.046287615709524 17.43493792619222 56.17422710615297 0 0 0
2933 2583 24 0 62.88876866606844 18.635530679690035 55.059745051463615 0 0 0
2199 1849 24 0 70.59513132787211 14.405810941020041 54.580448486203785 0 -1 0
3076 2726 24 0 70.31792026240748 19.504422989651278 55.345103097472894 0 -1 0
2867 2517 24 0 66.81769294254231 18.135921602889802 52.10104055682634 0 0 0
2938 2588 24 0 66.41139525468202 15.962153801578678 56.79812560800512 0 -1 0
3064 2714 24 0 79.33891457053166 17.156871471943788 54.642367935103984 0 -3 0
2488 2138 24 0 74.34703832180494 16.57468755422474 52.375993864070736 0 -1 0
3197 2847 24 0 75.94542854401413 21.425291356764962 54.366848497639815 0 -1 0
2620 2270 24 0 42.26911122114806 24.3098971380523 51.76193339089713 0 4 0
2096 1746 24 0 42.03838731132456 26.072985290012618 56.662238736469455 0 4 0
2163 1813 24 0 46.21485775805867 25.627750805853896 54.76113112371099 0 1 0
2711 2361 24 0 50.212447324335834 22.48578285610287 57.35935403929022 0 1 0
3157 2807 24 0 49.290350837151216 22.740103210900152 51.61634809782089 0 0 0
2545 2195 24 0 51.55253210580842 26.193608709362852 53.74870152843599 0 0 0
2824 2474 24 0 55.284325682234126 24.680214490748302 57.084613606561966 0 0 0
2451 2101 24 0 56.21083520461173 27.943546946622213 53.265571383285 0 0 0
2594 2244 24 0 58.934443899083035 22.07172633318731 53.76999370387052 0 0 0
3222 2872 24 0 63.456087438626525 27.42386692682215 53.90090849588261 0 0 0
2616 2266 24 0 59.72352173547933 27.155587918768514 57.162645619172324 0 0 0
2573 2223 24 0 64.01681758171672 22.68140860695968 50.81633992348412 0 0 0
2647 2297 24 0 66.55364318793599 23.040005001919777 55.13844000202107 0 0 0
2593 2243 24 0 71.99265208833589 23.733229161675464 52.69769420840123 0 0 0
3050 2700 24 0 68.7715167806305 28.044511251804586 54.70845200319649 0 0 0
3227 2877 24 0 71.30307145817467 23.906722620909246 57.520923666546636 0 -1 0
3239 2889 24 0 75.9714642334776 26.10797912293483 55.6823884730163 0 -1 0
3208 2858 24 0 79.42489625977123 27.581632873113147 52.75925786693892 0 -3 0
2591 2241 24 0 45.386773934084175 30.230266496024203 56.92287265941722 0 4 0
2184 1834 24 0 43.33601958175742 29.16793649358539 52.82366170522407 0 5 0
2804 2454 24 0 44.025005937973624 33.99650153646798 52.61884233532161 0 5 0
2623 2273 24 0 48.32047568443348 30.150522740273477 52.22100010898721 0 1 0
269 1 3 0 52.799767714514324 30.822769727330886 50.7239887637073 0 0 0
3190 2840 24 0 51.47957874948251 32.48960521130704 55.395913650545104 0 0 0
2648 2298 24 0 63.121805376907524 35.34882518915563 54.784872914083955 0 0 0
2496 2146 24 0 56.217791978391176 33.79359354531984 55.14510733475897 0 0 0
271 1 11 0 56.016735578189085 32.229586713128924 50.882050765390176 0 0 0
3083 2733 24 0 60.32793804591903 31.168674560540612 53.82447911063318 0 0 0
1890 1540 24 0 65.33368159290346 31.826666397574535 52.62234572069182 0 0 0
2920 2570 24 0 71.61454795056794 32.49582527838437 55.52460418224908 0 -1 0
2235 1885 24 0 68.37698836483389 35.93581555534525 53.92828903023585 0 -1 0
2625 2275 24 0 73.99976333589814 29.248508617940892 52.263260628175026 0 0 0
3030 2680 24 0 76.25196886321952 31.060536698231484 56.49043865887262 0 -3 0
2462 2112 24 0 77.07771329516028 33.63755628843369 51.16379024250076 0 -4 0
2130 1780 24 0 41.226874021964896 1.0699769489003534 63.31777510866746 0 3 0
2850 2500 24 0 45.73620776415974 1.6744240661832273 60.2389588033467 0 4 0
2657 2307 24 0 41.58282522188621 4.496028060352706 59.6679096600623 0 4 0
2015 1665 24 0 45.52635899102069 5.231783911957601 63.720625844323195 0 4 0
2725 2375 24 0 50.7988794539628 1.8984593668429222 61.89292691335357 0 2 0
2690 2340 24 0 54.04902954181399 2.704985285475784 58.318325629729415 0 2 0
2146 1796 24 0 54.61687399411084 5.2355731216461345 63.04480525697144 0 1 0
1965 1615 24 0 49.82638858495879 6.490102009933945 61.1633972904494 0 3 0
2823 2473 24 0 59.577188191486584 3.979692704981062 60.4925161669624 0 1 0
3066 2716 24 0 62.079648906080166 0.9727455997814535 64.21948215891945 0 1 0
2097 1747 24 0 56.754669657603 0.34714003214011224 61.778391693407315 0 1 0
3095 2745 24 0 64.43724178757999 5.584127767194122 63.90399343597082 0 -1 0
3097 2747 24 0 67.76280678770568 6.242985552937042 59.961054320178015 0 -1 0
3048 2698 24 0 66.03735808060001 1.4433296728183764 61.399126961883674 0 -1 0
3047 2697 24 0 70.28778118397855 1.3814537945546799 58.24262719633395 0 -1 0
2532 2182 24 0 76.30507597866745 0.9908349208302778 63.30174160039577 0 -2 0
2945 2595 24 0 73.31991469953726 5.332996812814106 58.356318519793916 0 -1 0
2403 2053 24 0 77.2026945092757 6.443723417543652 61.35724253755425 0 -2 0
3113 2763 24 0 72.8497818874706 4.532859857003359 64.35619976588536 0 -1 0
2595 2245 24 0 44.9586338374818 8.78409624451651 58.06257571519238 0 4 0
2691 2341 24 0 43.63331430753158 12.598007740138229 61.06838925342512 0 4 0
1357 1007 24 0 41.224114352771885 9.113772859227444 64.23946202806124 0 4 -1
2773 2423 24 0 50.48150656525346 13.454167053120365 58.42491439855147 0 2 0
2186 1836 24 0 55.457658201965984 13.434566839203262 58.40228036800019 0 1 0
1957 1607 24 0 53.60038056714601 8.620112723437506 58.47589054959027 0 1 0
2025 1675 24 0 48.39796296746508 11.132734061792583 62.18929979364164 0 1 0
2168 1818 24 0 53.58020024926109 11.130693658112584 62.92937909317242 0 1 0
3139 2789 24 0 57.50715656515061 8.812650974646397 62.04022775717483 0 0 0
2354 2004 24 0 60.55207742860313 13.085765073045312 62.029150064092605 0 0 0
2533 2183 24 0 63.80690150361184 9.395385868524516 60.82404751042061 0 -1 0
3196 2846 24 0 71.42385944691469 8.894763078994021 62.30734674037751 0 -1 0
2930 2580 24 0 68.1441191826247 11.294324380196652 57.74652148372099 0 -1 0
2262 1912 24 0 67.43523390748138 12.298056384729822 64.778068565056 0 -1 0
2268 1918 24 0 79.35012722428756 12.37084437134732 58.32869706481301 0 -4 0
2980 2630 24 0 73.966947319792 10.186197055176823 57.771294428967416 0 -1 0
3015 2665 24 0 74.97639468343917 12.789462652523406 61.94887150504796 0 -2 0
1929 1579 24 0 43.29275209799541 17.519517031642646 62.4451025176163 0 4 0
2868 2518 24 0 47.59585554492929 18.721142885913057 59.0050477247872 0 3 0
2712 2362 24 0 47.17934006891247 15.279797210201036 64.67561741580067 0 3 0
1979 1629 24 0 52.97381546965352 18.232092303741567 58.610344183118016 0 1 0
2673 2323 24 0 49.397204283650716 20.425254341501937 63.48822547508685 0 2 0
2574 2224 24 0 52.31636533354921 15.581032557388792 63.908652293777365 0 1 0
2818 2468 24 0 57.99138674680943 21.173255128498692 59.38101631129365 0 1 0
3193 2843 24 0 61.85145522688603 17.74815560075238 60.53012723421732 0 0 0
2539 2189 24 0 56.4433193413345 16.96901730369273 61.50408992228542 0 0 0
2813 2463 24 0 64.30253024542172 20.746926345828637 63.99889652602107 0 0 0
2203 1853 24 0 71.32907677184382 14.487318734682662 59.59547687761431 0 -2 0
2967 2617 24 0 67.08442425772488 16.495444333183915 61.9512839385676 0 -1 0
2309 1959 24 0 67.39793683908266 20.9195104291598 59.46742033439204 0 -1 0
3142 2792 24 0 69.56326236643329 20.66167905678077 64.43344877765921 0 -1 0
2214 1864 24 0 77.79579605983173 16.959971464077235 62.762884456134366 0 -4 0
2500 2150 24 0 75.54958473806256 16.39607447725368 57.70607871542737 0 -3 0
3125 2775 24 0 72.9041441962357 19.418520676048022 60.547402954902196 0 -4 0
3061 2711 24 0 75.55355807162937 21.518728281433514 64.34398745818747 0 -4 0
1974 1624 24 0 43.08119517051888 22.04720472958735 59.70907681302376 0 4 0
1847 1497 24 0 43.62852716298486 27.15103634869794 61.16210864961927 0 4 0
1905 1555 24 0 47.8305444741054 28.33119139531934 64.2462955782929 0 2 0
2878 2528 24 0 47.52866955628074 24.264910150908165 61.0710852085002 0 2 0
2215 1865 24 0 49.85023139723267 27.788711553114194 57.968915306657735 0 0 0
1980 1630 24 0 53.70830730288477 23.374114722180572 62.135400426397084 0 1 0
2794 2444 24 0 52.37170465211689 28.33090472850275 62.27466116321603 0 2 0
2762 2412 24 0 62.67710887587391 22.59605258416323 58.577729008986026 0 0 0
1869 1519 24 0 57.47592947702626 26.51707580670937 61.42307360237235 0 1 0
2444 2094 24 0 62.01383731617253 25.365310005365153 62.92396375253833 0 -1 0
2888 2538 24 0 58.44854955622637 22.30871837940695 64.2467865169673 0 1 0
3045 2695 24 0 66.74294946359686 26.291794873976208 62.558045491360716 0 -1 0
1939 1589 24 0 64.70959437592366 28.414295341813865 58.68660015463456 0 0 0
2402 2052 24 0 79.60944964072682 27.566762979421863 58.1369377124769 0 -6 0
3120 2770 24 0 78.44408585676226 26.236435527825773 63.55446584527801 0 -5 0
3007 2657 24 0 77.12345909109764 22.99666248700876 59.98091453441187 0 -3 0
2201 1851 24 0 72.55320699754611 25.00462326160139 62.81607760862841 0 -2 0
2415 2065 24 0 75.06951931777675 28.708208065959745 60.68376086806305 0 -4 0
5123 0 24 0 40.13973958441022 34.15521787520516 61.554313490629674 0 3 0
2760 2410 24 0 44.7779612631192 31.731264727839342 61.85267727055295 0 5 0
2696 2346 24 0 44.769133251433146 35.83630841816067 59.56964187977763 0 3 0
1966 1616 24 0 49.14783621846698 32.70639071784197 60.186769679093516 0 2 0
2835 2485 24 0 55.05975836206249 29.888411884916408 57.826987860006746 0 2 0
2599 2249 24 0 53.36536001024407 33.29689976669007 63.78939961475839 0 1 0
2249 1899 24 0 62.3110522672351 35.67160326838834 61.684951462520445 0 0 0
3089 2739 24 0 61.13282937716836 32.270367556299334 58.24730659539906 0 0 0
2952 2602 24 0 56.835572066937296 33.88740813328975 60.69296518401097 0 0 0
3242 2892 24 0 60.838317426668496 30.18788062530371 62.912167949437986 0 0 0
2207 1857 24 0 70.72533510094681 35.98600417398893 58.435782176925045 0 -1 0
2422 2072 24 0 69.87573946780043 29.581713381448086 59.61814901103318 0 -1 0
3067 2717 24 0 66.47568126654798 33.66027606258821 57.80751487582884 0 0 0
2966 2616 24 0 65.76553613743863 31.386117528344425 62.91293943564841 0 0 0
2217 1867 24 0 70.36280868121963 33.308045736069715 62.81238426403682 0 -2 0
2362 2012 24 0 78.12581217225309 31.774633526007147 64.06791119207494 0 -4 0
2991 2641 24 0 75.51967925559032 33.723654079486806 60.28331947536123 0 -4 0
2040 1690 24 0 40.9334027963081 3.3010123160311204 67.90582956828426 0 3 0
1971 1621 24 0 46.88988051771932 4.771249075770126 68.43859792473671 0 4 0
1114 764 24 0 45.743983477692986 0.37087339306667816 70.7834686848553 0 3 -1
2177 1827 24 0 46.055256018480094 0.8541538093105755 65.25292942892908 0 2 0
2183 1833 24 0 50.357034592710974 2.0880954795029893 71.11721116649751 0 3 0
2188 1838 24 0 51.62001649173876 2.6640673962388046 66.58688734205957 0 3 0
1926 1576 24 0 54.71843177880345 0.14876668659794845 70.24237624050285 0 3 0
1379 1029 24 0 56.09506572228592 5.564789627030894 71.8694135109095 0 2 -1
2687 2337 24 0 57.512254974280125 2.021648618566654 66.53661968616696 0 3 0
2318 1968 24 0 59.777572324474065 5.849227920165374 65.21224340564872 0 0 0
2030 1680 24 0 62.2324613930207 2.6728140933041917 68.9448432448332 0 1 0
2911 2561 24 0 66.85199697732955 1.150633626706842 70.80269301151787 0 0 0
2250 1900 24 0 68.39800838566961 2.8027596492138467 65.75213338350903 0 -1 0
2406 2056 24 0 69.56029332326634 5.669678681667868 71.3881518251133 0 -1 0
3258 2908 24 0 77.2609881803136 4.963738429220115 66.52345320303486 0 -2 0
914 564 24 0 73.88745450619108 1.2443207565297554 70.08616002676844 0 -2 -1
1549 1199 24 0 78.67945878397242 3.6265082810107945 71.40174230079636 0 -2 -1
2026 1676 24 0 42.79985111377648 7.303246961942413 70.58533789057142 0 4 0
1908 1558 24 0 42.35074061930885 12.103904662991587 70.78934346791479 0 4 0
2180 1830 24 0 45.46737188317894 10.472051283613373 66.36876314449624 0 3 0
715 365 24 0 47.10964082487381 9.882734310710857 71.25861098014637 0 3 -1
1857 1507 24 0 50.32805440980503 8.321184094641385 65.85893220534444 0 1 0
2900 2550 24 0 50.873471547568016 7.3178476461820585 70.55705790689396 0 2 0
2677 2327 24 0 50.1281084827541 12.479119525670615 68.54553874687514 0 2 0
2385 2035 24 0 55.19734686089814 11.224034264274707 70.7051331794691 0 0 0
2085 1735 24 0 55.13149372494382 8.012343103918946 67.17183737260505 0 1 0
3186 2836 24 0 59.30541377114817 8.519201333214179 69.59779162807163 0 0 0
3124 2774 24 0 57.12881547206533 12.292698637104374 65.81079008476806 0 0 0
3159 2809 24 0 62.03890586635875 10.186452774147867 66.0894311059059 0 0 0
1948 1598 24 0 59.77061440138056 14.239858690582306 69.73888016082083 0 0 0
2269 1919 24 0 64.15466149678413 7.293268283108766 69.7830826811934 0 -2 0
2475 2125 24 0 68.74904882985578 7.665903331259805 66.214201270211 0 -2 0
3053 2703 24 0 65.50181141646966 12.530235380464237 69.19146011005635 0 -1 0
1667 1317 24 0 70.31299121577429 12.76670424228537 70.9345299262831 0 -2 -1
1679 1329 24 0 75.58589785178904 12.751224484865583 71.44425820637673 0 -3 -1
992 642 24 0 73.17868816113771 7.9521234156654526 69.50570200889808 0 -2 -1
2983 2633 24 0 76.46561678738031 9.192079589866578 64.96314863099542 0 -1 0
2386 2036 24 0 72.46272830450268 12.440711193951339 66.2681432352102 0 -2 0
3004 2654 24 0 78.08170506946145 8.587249456509705 70.18152973371225 0 -3 0
957 607 24 0 77.25044656478981 13.77987965763474 66.74641854527381 0 -4 -1
2587 2237 24 0 46.080540813718834 14.993285650943767 69.89960989520581 0 3 0
2898 2548 24 0 41.607456682790406 14.51338649496643 66.41536171529121 0 4 0
2857 2507 24 0 44.342223595112856 19.316131352329634 67.27045724376956 0 4 0
2582 2232 24 0 53.70913961780222 19.916213915548592 65.56360005431245 0 2 0
2793 2443 24 0 50.01958550848111 17.386030490536438 68.17218470663143 0 3 0
1918 1568 24 0 54.956623109760095 16.091978377611746 68.91768188644929 0 2 0
2589 2239 24 0 63.49055516922517 15.381911193434542 65.34181929179644 0 1 0
408 58 24 0 59.0151245885121 17.442413746935706 65.93298985820813 0 1 -1
1355 1005 24 0 58.673745582984616 20.39509096456005 69.7429837658087 0 3 -1
2265 1915 24 0 64.25704290569665 17.566300117510377 69.91407994125883 0 -1 0
3136 2786 24 0 68.67703207380046 16.877551543756322 67.48836148293744 0 -1 0
3253 2903 24 0 72.6542040139837 18.17796505928567 71.12899829041001 0 -3 0
5046 0 24 0 77.60205397087694 18.876818229517607 67.50931852546184 0 -3 0
3131 2781 24 0 73.08400125987353 17.109467185344887 65.6799640894798 0 -2 0
2343 1993 24 0 79.94673069236266 16.630279789523193 71.97009786129631 0 -4 0
2061 1711 24 0 44.123765355736374 23.773255996435445 64.94193525553628 0 4 0
450 100 24 0 40.95970655437032 26.0882418767483 69.42389672172833 0 3 -1
2675 2325 24 0 44.64859000957853 23.072364025116652 70.59649233859905 0 4 0
2122 1772 24 0 47.36058700617578 27.08110872444434 68.89192037275569 0 3 0
2719 2369 24 0 49.40537959714745 22.638628858452936 67.69756022007715 0 3 0
1827 1477 24 0 53.75034811095858 21.866730606693988 70.66757244768593 0 3 0
1889 1539 24 0 52.17310105123027 26.261724671064012 71.28096495930794 0 1 0
2615 2265 24 0 54.49024248341099 25.063397683779968 66.56671821423011 0 3 0
2536 2186 24 0 59.46711208989195 26.412938884334512 66.86816938835658 0 0 0
2441 2091 24 0 62.37698232053725 23.135565070798723 67.9339594036516 0 -1 0
2943 2593 24 0 62.66084510187711 26.63887908096429 71.41216887446882 0 0 0
1150 800 24 0 57.48999817130559 27.212053399178313 71.39056776071337 0 1 -1
3187 2837 24 0 67.44185139521437 22.06241741402677 69.21064620012208 0 -1 0
3123 2773 24 0 64.5836099221536 27.69751736154576 66.97121268488908 0 0 0
2372 2022 24 0 69.41675518611103 26.327250432620986 66.70548950359499 0 -1 0
2994 2644 24 0 67.58141976559281 28.294883137189125 70.85361445169124 0 -1 0
906 556 24 0 79.94923507601361 28.33204300593699 68.61335835455765 0 -4 -1
2325 1975 24 0 72.32685899461313 22.407897638547485 68.15466280211467 0 -3 0
4965 0 24 0 78.38847598817247 23.651816389012236 67.9576631911105 0 -4 0
2997 2647 24 0 74.36460505908826 26.62825214618567 70.64756168405509 0 -1 0
386 36 24 0 40.4560730554694 32.728387606168816 71.14318880559192 0 4 -1
1860 1510 24 0 43.920450913779725 30.639240293545534 67.00722324339708 0 3 0
2771 2421 24 0 44.66813498554966 35.44778113912204 69.68805377684836 0 3 0
2029 1679 24 0 40.63580433902565 34.92375666675787 66.7283463006409 0 4 0
2583 2233 24 0 48.016409270007 33.133031795285156 66.39121955137993 0 4 0
2001 1651 24 0 49.23382488285211 34.201897244315816 71.52426140830157 0 2 0
1864 1514 24 0 51.91220094151383 29.93563376094127 67.59600132043266 0 1 0
2638 2288 24 0 54.50932988779567 33.040718362139565 70.32381724818596 0 1 0
2884 2534 24 0 56.464964849678076 30.05720281549751 65.66185384309938 0 1 0
1853 1503 24 0 57.95980117235169 34.7043059452183 65.48427697135669 0 1 0
2926 2576 24 0 63.22416981555458 33.14112131568378 67.15142801820356 0 0 0
3009 2659 24 0 59.122274728932574 31.626912079861015 69.7047897019926 0 0 0
1603 1253 24 0 71.88436367603383 35.80609302126043 69.16499825309097 0 -1 -1
1819 1469 24 0 71.92251363259834 30.754531061345673 70.83928025464145 0 -1 -1
3156 2806 24 0 64.12207184336476 31.279420121454898 71.43679857245856 0 0 0
3117 2767 24 0 68.41452476113552 31.633235070225865 67.2016307474761 0 -1 0
980 630 24 0 66.88740984055414 35.230617037461755 70.5217398412258 0 -1 -1
2395 2045 24 0 76.59188664339915 32.19639666041852 68.91088115355255 0 -3 0
2482 2132 24 0 72.89378393349142 30.22735694392812 65.73476878115356 0 -4 0
879 529 24 0 74.86172668904644 35.08738479170062 65.32171877429674 0 -2 -1
961 611 24 0 76.00905035438359 35.87646213327259 71.87984127979652 0 -2 -1
1365 1015 24 0 45.58082769219338 41.07609702556236 5.391765783834852 0 2 0
2766 2416 24 0 42.61381999428667 36.94522110560081 2.465780913722902 0 3 1
2190 1840 24 0 41.26092542303981 42.77696488617986 1.68662301973537 0 3 1
2172 1822 24 0 47.50024209260076 37.458605373161234 3.1353011642681783 0 2 1
1259 909 24 0 51.72901520423687 39.50525540900097 4.142801815261429 0 2 0
2226 1876 24 0 55.586548631776346 42.10160267265526 1.4641480769589545 0 0 1
1011 661 24 0 54.84124674991064 42.58732194986781 6.802010061446201 0 0 0
1651 1301 24 0 59.38187842432796 41.31962786623143 5.070657629714957 0 0 0
1211 861 24 0 56.55915773982488 37.34882398799059 4.93422898946942 0 0 0
915 565 24 0 56.61304846875341 37.09327879344138 0.07510397077599389 0 0 0
1224 874 24 0 64.44774349250284 41.4498060211495 4.0374127656636105 0 0 0
893 543 24 0 67.60166196571245 37.046556759911596 5.563172781555547 0 -1 0
776 426 24 0 70.2433494967645 37.25040814665216 1.5139228009856274 0 -1 0
1395 1045 24 0 69.95431942875433 41.97272260520616 3.5519568926012144 0 0 0
877 527 24 0 75.02458251178827 38.42100642622793 3.9797224649447105 0 -2 0
564 214 24 0 45.487778212057385 46.01190459352631 3.663254433022354 0 3 0
697 347 24 0 41.89357544861494 49.99474302628887 6.857131280308281 0 5 0
2568 2218 24 0 49.40649609501491 43.51069766129177 2.3299084259790126 0 1 1
1177 827 24 0 49.409566830268794 49.01101795216513 4.086264751778133 0 2 0
806 456 24 0 53.41044835613426 46.50674750682016 4.532727306533827 0 0 0
2153 1803 24 0 56.71384965744455 47.531222768956006 0.9921424635904799 0 1 1
2756 2406 24 0 61.496588627534976 45.403311500779935 2.996832020743426 0 0 1
1035 685 24 0 57.92256612030273 46.49721479488025 6.321470936156041 0 0 0
588 238 24 0 64.88827145539081 46.13498008538795 6.509266217601775 0 0 0
2418 2068 24 0 66.69869623121211 45.25495874860508 1.4958572650692386 0 -1 1
1515 1165 24 0 69.86649972209035 50.054493613038844 2.2810546983313915 0 -1 0
1012 662 24 0 73.28872053801764 45.79059621428765 4.291089932236595 0 -1 0
1609 1259 24 0 78.62562314964279 43.83480475565682 3.371105944454808 0 -3 0
1797 1447 24 0 78.70108317801588 48.72557158307468 2.9365870243322596 0 -3 0
891 541 24 0 74.55065372459823 50.37618678485031 5.81900350571483 0 -2 0
646 296 24 0 46.65310381451249 51.65593219374397 7.1919819143119765 0 1 0
502 152 24 0 44.38869588035769 51.45533584171004 2.668149872425147 0 3 0
424 74 24 0 42.24729505602399 54.876726793667146 6.594876472320838 0 5 0
698 348 24 0 45.350605682955326 56.31274077176963 1.5647683848901446 0 2 0
1178 828 24 0 47.441840706602676 56.29293189294784 6.0485657319195605 0 2 0
1160 810 24 0 40.050731837976315 56.34344515949559 2.2142019557191186 0 4 0
1849 1499 24 0 54.91935419558817 51.07841198646316 4.828312570830575 0 1 1
1155 805 24 0 50.036075886069035 53.26954693496957 1.9617606621535344 0 2 0
1362 1012 24 0 53.141922071009525 56.53472707761234 4.979006260016854 0 1 0
640 290 24 0 59.76043215300089 50.895060409157665 4.6925979409810115 0 0 0
609 259 24 0 57.56681852110725 56.053583050872895 7.045931448452064 0 0 0
2680 2330 24 0 61.07194938035548 54.9966967429623 2.444969940217384 0 0 1
1282 932 24 0 56.87977431140338 53.04465575587288 0.5798700135776742 0 1 0
950 600 24 0 64.89070867664869 50.547892672595886 4.395334038916942 0 -1 0
2580 2230 24 0 66.69429624873415 55.22658782400716 4.188386070809253 0 0 1
2495 2145 24 0 71.40793315958997 54.7781349491583 1.039804318916644 0 -3 1
1499 1149 24 0 70.67450318669492 53.69752040722012 6.427241584679965 0 -1 0
3106 2756 24 0 77.35249393119324 53.80722120794386 2.938925077996652 0 -2 1
543 193 24 0 43.85747497313481 61.581254420507065 2.8807964985785675 0 1 0
682 332 24 0 41.43346720861335 64.70487946002137 5.775473754703845 0 2 0
1204 854 24 0 52.542943558311386 61.378879038478296 6.385173572375535 0 2 0
443 93 24 0 48.4376418391243 60.725647256152946 3.7177331020463398 0 1 0
538 188 24 0 53.0816590507966 61.609534029270314 1.2085998505642481 0 0 0
579 229 24 0 56.93504957732405 59.00445529192464 1.9118722637805092 0 0 0
654 304 24 0 57.700500840611824 61.44985249728034 5.896894235826249 0 0 0
1526 1176 24 0 61.024592163081984 62.14632617340267 2.3920838330043894 0 -1 0
1287 937 24 0 63.73126106185284 58.895907755143526 5.162262884626956 0 0 0
1053 703 24 0 67.73511154631824 62.084797790420225 4.581828561437292 0 -1 0
3183 2833 24 0 71.58915046015187 59.11189893564827 2.991475460880443 0 -2 1
787 437 24 0 67.18665950622457 58.42773744287924 0.11330822556861632 0 -1 0
2347 1997 24 0 77.72917191095726 58.69776099064492 3.5761832115149756 0 -3 1
3109 2759 24 0 74.34749876562503 63.05500953898508 1.9318952770733768 0 -2 1
1780 1430 24 0 79.6182979697755 63.49893211284971 3.201599207777736 0 -2 0
1298 948 24 0 46.228350234290815 65.7303563526319 4.813609709156918 0 2 0
1349 999 24 0 42.84997397239894 69.5791200933156 4.71613378968385 0 3 0
1428 1078 24 0 43.74809502857547 67.40390930096576 0.021623263815252397 0 2 0
1220 870 24 0 49.19394092926612 69.34121600904578 6.685312546178146 0 3 0
1171 821 24 0 51.22738848433762 65.35441513992804 3.844354199639328 0 2 0
736 386 24 0 48.43362054982552 68.92898576825328 1.3413374178473094 0 2 0
514 164 24 0 52.96009173093406 69.99615809079107 3.0545449877935233 0 2 0
430 80 24 0 55.1047057068853 65.85217212951251 6.582834693704775 0 2 0
475 125 24 0 60.21294287739491 66.1409218648275 5.278161895506235 0 0 0
1903 1553 24 0 56.26752865021196 65.80541334672532 1.7419184293131165 0 0 1
1109 759 24 0 57.75665936758153 69.71228816719363 4.323755490919318 0 2 0
2412 2062 24 0 62.743383594338546 70.54777017094001 2.099570738699213 0 -1 1
902 552 24 0 65.16809255237973 66.14943038609562 3.725950789204668 0 -1 0
2466 2116 24 0 70.45751336477709 66.95522339139514 3.427791420872737 0 -2 1
668 318 24 0 67.73155817302384 71.63092827322463 4.986823701058465 0 -1 0
1506 1156 24 0 71.00684983038387 71.97303091128946 1.5989994757019221 0 -1 0
3080 2730 24 0 76.61927056991146 71.39030000801758 1.9838222905217147 0 -3 1
867 517 24 0 76.35896538225288 67.41223292446084 4.399873403556623 0 -2 0
808 458 24 0 78.06273492869497 70.83483372157288 7.192852161581004 0 -4 0
1382 1032 24 0 45.73276650519742 38.75883890820027 11.89978145345276 0 2 0
540 190 24 0 40.929515439620836 38.9329484709849 10.105637304165061 0 3 0
1445 1095 24 0 44.27908821604743 36.46435811036044 7.289046853349789 0 2 0
1315 965 24 0 45.15985873843268 42.94473596622722 10.10029747605752 0 2 0
1367 1017 24 0 49.41271144754687 40.301604152358465 8.57833343716582 0 1 0
790 440 24 0 53.11590923355589 37.52362954545782 9.684181101160105 0 0 0
714 364 24 0 50.303215604461954 39.66253431275665 13.682230338806713 0 0 0
1440 1090 24 0 58.155662377894295 39.10510599297033 9.458586561370964 0 0 0
710 360 24 0 63.149615871055666 38.26573602124424 7.681416845698325 0 0 0
603 253 24 0 59.38295378125039 40.10363654823379 14.029628045196336 0 0 0
1227 877 24 0 62.6856451880267 36.0361179834375 12.959490964632796 0 0 0
1272 922 24 0 67.16688459020003 36.63268935190268 10.536490536507399 0 0 0
1236 886 24 0 65.07562501662548 41.025427496591774 12.617375668816072 0 0 0
1745 1395 24 0 70.22230713533624 39.52632264527203 13.117281569248918 0 -1 0
716 366 24 0 67.13352265519512 41.83098058595407 8.108057756615741 0 0 0
919 569 24 0 72.20029833881225 38.90201203774894 8.35835835723181 0 -2 0
1490 1140 24 0 75.02510268714886 36.638992421990416 12.730153309855387 0 -1 0
1028 678 24 0 77.24754115337966 37.5356215802943 8.316387291386825 0 -2 0
741 391 24 0 76.31552527670613 42.55674142232848 8.614503931455513 0 -2 0
964 614 24 0 73.96599576723447 43.16141707235647 13.045143706077178 0 -2 0
1493 1143 24 0 79.05117139883075 40.27505336269132 12.598799492378406 0 -2 0
706 356 24 0 46.03909831770568 46.41354054227899 14.028315593718686 0 1 0
468 118 24 0 43.89735958114551 47.45484206465119 10.06347024265915 0 2 0
661 311 24 0 41.30262062775104 43.8195984467952 13.526370588052938 0 2 0
1285 935 24 0 40.68615895670213 43.89340675388338 8.423931014517786 0 5 0
481 131 24 0 48.283275774905114 45.54343917335925 7.414457525015827 0 1 0
453 103 24 0 50.73464178046148 44.544756025836804 12.324589219402261 0 1 0
444 94 24 0 49.05966755816795 49.155065140633575 10.885682128139829 0 1 0
680 330 24 0 53.72207600657725 47.37830537958748 9.668611471671584 0 0 0
1364 1014 24 0 62.15341582614297 43.87414317228407 9.816971895415307 0 0 0
406 56 24 0 56.50736300512638 44.11911725854203 11.648343937086757 0 0 0
440 90 24 0 58.393119875894136 48.89913615550186 12.834244663497092 0 0 0
612 262 24 0 61.248256255739506 48.905025855269365 9.130623452035707 0 0 0
1196 846 24 0 69.40075868791504 48.81300158639709 7.232514159251333 0 0 0
1472 1122 24 0 71.19687133300873 44.03265661579687 8.245226607141923 0 -1 0
620 270 24 0 65.57538121728625 48.2784834602858 11.29332908782661 0 0 0
637 287 24 0 68.7387305619671 44.36797549126762 12.901161940727905 0 0 0
777 427 24 0 69.88755013904132 49.99395958904738 12.901684265009449 0 -1 0
1057 707 24 0 79.00834768792491 45.49123326143708 12.573955386614042 0 -3 0
1540 1190 24 0 74.50773207842533 47.04547628437133 10.057096637464701 0 -1 0
436 86 24 0 45.362500793696626 51.98110089561992 12.018896817742627 0 2 0
1149 799 24 0 40.69430425771855 51.46894172969293 11.666896016839349 0 2 0
498 148 24 0 40.589438783651026 57.25730038707118 11.845448335729854 0 2 0
1412 1062 24 0 45.55937362443919 57.056904864510166 10.605802467311477 0 2 0
1006 656 24 0 51.395088056365516 53.75022806455837 8.392296593601468 0 0 0
389 39 24 0 54.11858047644773 51.61411376819657 13.21977911878508 0 0 0
407 57 24 0 49.46053436197671 54.80217066797772 12.725537060615103 0 1 0
1424 1074 24 0 62.30737422621698 54.598015721293315 7.5543099568687655 0 0 0
1085 735 24 0 56.33421368370244 51.77731880947981 9.183190699081315 0 0 0
421 71 24 0 57.726114791278725 55.70793212959921 11.830390028228646 0 0 0
681 331 24 0 62.357467203052124 53.22785195847065 12.033158187568498 0 0 0
473 123 24 0 66.7541503664261 53.02650160897395 9.344072973058406 0 0 0
869 519 24 0 70.13079780036492 56.00695854716965 11.99948984845519 0 -1 0
1601 1251 24 0 64.97192547489956 57.565857170654326 10.412651198015299 0 -1 0
1758 1408 24 0 73.81525088580678 52.203376328192235 10.914029099190223 0 -1 0
883 533 24 0 78.2196536149989 51.20182217820603 9.092355172015965 0 -3 0
755 405 24 0 78.50771492843428 54.736146221304146 12.239232542722268 0 -3 0
2392 2042 24 0 74.97968575792872 56.54952252140876 8.928783882613244 0 -3 1
1152 802 24 0 40.3510933409105 64.70586828884875 11.409144351304052 0 3 0
1215 865 24 0 45.55656577406389 61.75679317058099 7.472731866097987 0 2 0
590 240 24 0 44.0508719594683 61.55160883709784 12.241498174150841 0 2 0
604 254 24 0 40.90031707103105 59.72029280537504 7.437587016854737 0 3 0
1320 970 24 0 54.401560944710056 58.60562480919564 10.139045753918106 0 1 0
527 177 24 0 49.73392834064254 60.29396297122818 10.549036188977167 0 1 0
1461 1111 24 0 48.41075068245566 63.61788848707223 13.984734503301219 0 2 0
411 61 24 0 56.448307084453276 62.843330254274306 10.451379944022584 0 0 0
1627 1277 24 0 60.67316852979692 59.737212706314175 10.905361921492633 0 0 0
1731 1381 24 0 63.57087031056672 63.51087987360431 7.502656193368774 0 -1 0
1063 713 24 0 69.5844436270483 58.640253764594966 7.7426518191515346 0 -2 0
1700 1350 24 0 67.276559513275 62.163683438357026 10.995860591410596 0 -1 0
1007 657 24 0 71.97854589647409 62.01223892881428 12.593641610187186 0 -2 0
3260 2910 24 0 76.84987818817746 61.97099690211389 7.554960980031747 0 -2 1
838 488 24 0 74.88894177813215 57.666631460469475 14.146204563371272 0 -2 0
1713 1363 24 0 72.26333203679378 64.34812757738838 7.835073530134776 0 -2 0
1632 1282 24 0 78.91857269940293 60.61789047878891 12.200097400815705 0 -2 0
437 87 24 0 45.04935921682637 71.4910019693046 8.610647105414968 0 2 0
398 48 24 0 44.72347302022565 65.96204042606146 10.438113303022556 0 2 0
1343 993 24 0 42.430261105257024 71.4022303210313 12.754982201495064 0 3 0
1123 773 24 0 48.26663504892688 69.00984864496249 12.285328442803419 0 3 0
1411 1061 24 0 50.00824849922318 65.29048175510798 9.696176283533447 0 2 0
1386 1036 24 0 53.74752934377012 70.84862996086724 8.191133930188586 0 2 0
583 233 24 0 53.41232686910073 67.29419890921082 12.199987434587532 0 1 0
459 109 24 0 61.08298794802833 65.11426591724275 10.94084781435921 0 0 0
622 272 24 0 63.467811064311334 69.06197630120622 7.366981172131924 0 0 0
372 22 24 0 58.29120645830403 68.67643831055784 9.054002736426414 0 0 0
493 143 24 0 57.003723835092096 70.68800013019177 13.66392870327335 0 0 0
480 130 24 0 64.7648861651392 67.63882398328899 12.659097378254122 0 0 0
572 222 24 0 67.85592452950367 66.97366019194811 7.85632173027864 0 0 0
884 534 24 0 70.20874284741336 66.77383600596681 11.911710192977695 0 -2 0
3224 2874 24 0 67.36757329358993 71.5526055058508 11.407541374034139 0 -1 1
924 574 24 0 76.28238841632518 66.362003157346 11.532251477825932 0 -2 0
1769 1419 24 0 73.15701104033657 69.19325926071201 7.8103391058191285 0 -1 0
786 436 24 0 79.30604236308028 70.11910576023206 12.440454897443786 0 -4 0
1674 1324 24 0 72.61296420705906 71.55568650338512 12.106052772916463 0 -2 0
1568 1218 24 0 79.86309235718099 66.04897868076722 8.194427771779536 0 -3 0
1460 1110 24 0 42.183045489970446 41.54596206865845 20.68228214996218 0 1 0
458 108 24 0 46.34983494113603 41.99155853737681 16.141137542186335 0 1 0
1317 967 24 0 42.41577996647548 38.567432789841284 15.57491001182331 0 3 0
1095 745 24 0 46.605813527383916 39.002073598422 20.74548665336563 0 0 0
1265 915 24 0 42.461061543813635 36.46386314071799 21.416597543801146 0 2 0
613 263 24 0 46.88477413568859 36.32673554576281 16.531101433126175 0 1 0
1773 1423 24 0 54.92132332816736 37.65728566759355 14.970598270454595 0 0 0
760 410 24 0 53.61825060328425 42.469129254866004 15.94298663303592 0 0 0
1060 710 24 0 51.10748810270538 38.923682071842 18.99829321367951 0 0 0
486 136 24 0 61.91021330925114 41.29279254974886 18.3621808531054 0 0 0
996 646 24 0 56.815935981477686 39.62705858901456 19.25334280156717 0 0 0
695 345 24 0 62.45998681072039 37.44096983365572 20.8113322188824 0 0 0
1615 1265 24 0 71.14991390231012 36.76965750005415 17.596713949012212 0 -1 0
726 376 24 0 65.1481913230401 37.99918569182149 16.26837857201306 0 0 0
1092 742 24 0 71.99832780793157 41.62555976771015 17.31998149087008 0 -1 0
198 1 9 -1 67.6822980403157 39.8713026130019 20.201336828968714 0 0 0
199 1 6 0 66.82717643190493 40.452724558388795 21.274956262867857 0 0 0
593 243 24 0 66.47091760913197 43.13579771709723 17.298572599011887 0 0 0
200 1 8 0 69.64501962350465 39.788138738696446 21.44495504645566 0 0 0
1457 1107 24 0 76.33869484428818 38.8807137188874 17.414427654148373 0 0 0
1371 1021 24 0 44.20299168968306 45.57607344533057 18.923162634294147 0 2 0
399 49 24 0 47.8710333336234 50.37006280513067 20.190053073393067 0 2 0
687 337 24 0 41.37567708375861 48.5693701127633 15.98962544119961 0 2 0
862 512 24 0 42.978292057711606 50.10560848564221 21.283974386857093 0 0 0
1037 687 24 0 54.06820822575113 47.1989323666067 15.415856422194157 0 0 0
1086 736 24 0 53.963881181736575 43.739681167973956 21.044722597387647 0 0 0
649 299 24 0 49.43325298948025 45.31788026313558 17.214178203276695 0 0 0
987 637 24 0 52.88896136158748 49.225587728250446 20.124757061440484 0 0 0
425 75 24 0 49.57467392872839 50.20365646544305 15.774395616207014 0 1 0
901 551 24 0 58.250472405263686 44.82150583384151 17.0217273287808 0 0 0
648 298 24 0 58.334190847504594 49.47272020253503 18.28121255111056 0 0 0
438 88 24 0 62.656525314822204 45.57697008831404 14.475753471006492 0 0 0
390 40 24 0 62.92485162167183 46.4339518153831 19.404321517972033 0 0 0
730 380 24 0 62.19429447140187 50.20198702838491 15.572897792512721 0 0 0
465 115 24 0 66.61005744254739 48.382883309696254 16.4727516081836 0 0 0
507 157 24 0 69.94406333622739 44.45518825889218 20.74556033588259 0 0 0
483 133 24 0 69.74387386350598 50.304167570006726 19.82036037266346 0 0 0
1174 824 24 0 71.5956231627684 46.555180060364535 16.52441909882724 0 0 0
1500 1150 24 0 76.37126038405505 43.491819493202065 17.160780363456258 0 -1 0
975 625 24 0 75.69035602221842 48.7843906471381 15.08767507353163 0 -2 0
392 42 24 0 74.27745645249382 47.19263248321397 21.19161045466262 0 0 0
1521 1171 24 0 78.93881989123201 49.99978416711998 21.132516202372788 0 -1 0
563 213 24 0 44.35777073917654 52.259973258441775 16.912871421420103 0 1 0
725 375 24 0 42.11684440536296 55.31052323900421 20.848807585779927 0 1 0
1455 1105 24 0 47.84201750613557 55.23210193220759 17.609399572175143 0 3 0
1319 969 24 0 52.879731231830725 53.407203441956675 17.703113558514186 0 1 0
1425 1075 24 0 53.958808465444605 57.25906395767406 14.958132165556103 0 1 0
831 481 24 0 58.25114031919287 54.22585396651715 16.794688061010884 0 0 0
416 66 24 0 62.901669911711835 55.96215231403154 16.23750316732188 0 0 0
577 227 24 0 60.88496769289949 55.97506947381643 20.79755046290233 0 0 0
601 251 24 0 63.86969056241208 51.99556359347109 19.65806682377383 0 0 0
882 532 24 0 56.687935421946 52.877604391968774 21.202171632621045 0 0 0
712 362 24 0 66.61425706221917 53.21879269891977 14.658263125227434 0 -1 0
1682 1332 24 0 69.04715666017141 56.2171045979734 20.3307142910681 0 -1 0
1785 1435 24 0 71.70883923699316 53.68887999878664 16.17240418825882 0 -1 0
1689 1339 24 0 77.43429063698582 52.92697685970678 16.994279497536024 0 -1 0
1045 695 24 0 74.48788536701261 52.68556874913439 21.424693390380458 0 -1 0
1562 1212 24 0 74.49077366105047 57.1809525776776 18.83816822408059 0 -1 0
960 610 24 0 79.09025788932459 56.198803069438895 21.257786474468638 0 -4 0
510 160 24 0 44.19778912098086 57.733045624141496 15.863210066628605 0 2 0
615 265 24 0 44.40707352430696 62.68537752408356 17.54770212718984 0 3 0
666 316 24 0 47.727910198559094 63.98129142848281 21.14135431333792 0 2 0
1274 924 24 0 40.64561013145997 59.920190819960865 19.672290631848764 0 4 0
462 112 24 0 53.36611696051274 61.84024273883725 14.885347513371448 0 0 0
1135 785 24 0 48.679609404835176 60.39466254769727 17.255489354204112 0 2 0
448 98 24 0 52.70129766590992 62.94513794786056 20.509430332547833 0 1 0
439 89 24 0 50.740237019486344 58.13798053582164 21.308082394199634 0 1 0
607 257 24 0 55.56255442501666 58.835147346246806 19.87406021538726 0 1 0
995 645 24 0 63.63249251833348 61.60700047692702 14.418240977793406 0 -1 0
653 303 24 0 57.91710728765947 60.14831827562694 15.35242437743093 0 0 0
505 155 24 0 60.367787480400224 63.57567461180899 17.408960270965533 0 0 0
1802 1452 24 0 67.30080140373754 58.380998696152794 15.179465566964861 0 -1 0
584 234 24 0 65.31710640049225 60.08900264477762 19.64921353381409 0 0 0
979 629 24 0 70.80876130768796 60.283350597820174 17.965294299343945 0 -1 0
1788 1438 24 0 67.95282200735177 63.659856611869266 15.65227039271321 0 -1 0
1602 1252 24 0 76.13146247290626 62.4286741792225 15.98823400364637 0 -2 0
1690 1340 24 0 77.93905200360777 60.7568981040046 20.09457172195851 0 -3 0
1698 1348 24 0 79.29977148580043 57.74074364067602 16.195355229305363 0 -2 0
422 72 24 0 44.3678521543345 67.2060419685776 15.209560747296697 0 2 0
531 181 24 0 43.45599777197827 67.63225589276254 20.280453584824496 0 2 0
479 129 24 0 41.38506459359595 71.12135373674623 17.26563953369309 0 2 0
685 335 24 0 40.06952469287289 66.72443837903748 16.97384487458987 0 3 0
1462 1112 24 0 48.62917629834947 69.00259316567569 17.780965598887946 0 3 0
1290 940 24 0 53.66153896591937 68.11840434885967 17.245049842715915 0 1 0
1438 1088 24 0 56.85317198588274 65.4541278542436 14.752822424946379 0 1 0
1454 1104 24 0 61.027989812811086 68.57471956715247 15.499940735659122 0 1 0
591 241 24 0 57.98375646323181 67.8864775441382 19.20677809667194 0 0 0
1310 960 24 0 61.820384193945586 65.8573117707968 21.561130871487425 0 1 0
1229 879 24 0 65.66027831269683 67.32940476779709 17.877958891877416 0 1 0
812 462 24 0 69.24715418095859 69.51585072325057 15.784937956194039 0 -2 0
1812 1462 24 0 70.8759934869118 65.15251302575092 19.18330932394167 0 -1 0
1519 1169 24 0 73.15049969205485 69.88845382276855 20.604455952463397 0 -2 0
991 641 24 0 73.86679174326513 67.39421388616852 15.955685379001675 0 -2 0
1522 1172 24 0 79.54666694780745 65.87746775683875 15.062558019197642 0 -2 0
1052 702 24 0 77.42153761615808 70.64340473395265 17.114367816482353 0 -3 0
770 420 24 0 44.721903056352744 40.86982454970876 25.050680619576188 0 0 0
67 3 17 36 46.73450730670413 39.51427460746242 28.099375547365362 0 0 0
912 562 24 0 41.01376995966613 39.32842090803414 28.050596289965316 0 0 0
68 3 17 36 48.34374608938768 41.761455200242246 27.144176306999842 0 0 0
77 1 8 0 53.79582668537047 37.16463662155404 22.637388940376677 0 0 0
807 457 24 0 53.4351599208162 40.99388615615988 24.690835430725514 0 0 0
1029 679 24 0 49.53105391890845 38.18209159558198 24.609307262003842 0 0 0
66 3 17 0 50.77063910710315 40.378886156466464 28.301562567137175 0 0 0
570 220 24 0 55.58786885687514 39.53346605293819 28.69898082959271 0 0 0
966 616 24 0 48.81228680182855 42.616876036395155 23.137481794948165 0 0 0
792 442 24 0 58.6116356539072 39.40764957139009 23.5067611424035 0 0 0
203 1 3 0 62.72053029769919 41.50534737586417 24.031238472106974 0 0 0
205 1 3 0 61.771200373780985 40.4171608833201 27.20746235790429 0 0 0
202 1 8 0 62.888038741630126 40.723139427906666 23.766524524337193 0 0 0
2 1 2 0 62.39222797260157 40.862528722799816 27.087978017850073 0 0 0
420 70 24 0 66.16227226858646 38.373755420480954 25.470339751539335 0 0 0
197 1 3 0 69.94819303583911 38.96258370948555 22.541045708629525 0 0 0
194 1 3 0 70.96898218166201 40.05187890588962 28.432986270644708 0 0 0
520 170 24 0 67.95932260601056 43.11520835858358 25.047711679449513 0 0 0
196 1 11 0 71.41020472948121 39.27297635873939 25.287385946277087 0 0 0
1350 1000 24 0 74.35532881881784 36.56882537701137 22.551064430883933 0 0 0
1250 900 24 0 78.70329182070112 39.751751044433966 21.733820098691215 0 0 0
519 169 24 0 75.22779482172277 38.77816989467051 27.13854098362086 0 0 0
1280 930 24 0 74.23793235077018 41.504450847969196 21.761050753792247 0 0 0
529 179 24 0 40.1922592895113 48.553317303448495 25.715977660642064 0 1 0
1447 1097 24 0 45.27103586166466 46.572714649424796 24.059400268597486 0 1 0
1062 712 24 0 41.173409117486585 44.43316196030031 28.782044496104103 0 0 0
314 1 18 0 47.69503773301918 46.24472427615758 28.468907141197867 0 0 0
647 297 24 0 50.14355788740008 49.71238396211958 24.65651019280961 0 1 0
916 566 24 0 52.41304840018254 45.56200958352935 26.888925536041874 0 0 0
477 127 24 0 56.19757311421742 47.90936330930087 23.536389585366116 0 0 0
409 59 24 0 59.02877505415019 44.0881104257687 21.645632987571844 0 0 0
839 489 24 0 57.72406882547602 43.318663167946774 26.63138682517975 0 0 0
204 1 12 -1 62.580176619958664 45.27925583440979 25.428166028059273 0 0 0
1 1 1 0 62.800671803179746 45.20933780376948 25.693263781369698 0 0 0
396 46 24 0 59.40332637080845 48.59601565591443 27.426946315638432 0 0 0
4 1 4 0 62.14478661355389 44.42356810442631 25.990160473004426 0 0 0
201 1 14 0 64.45449552272608 43.291552128532935 22.069283780993977 0 0 0
693 343 24 0 66.2748051279449 48.0177183738195 22.578929160089302 0 0 0
1436 1086 24 0 71.98480454173406 48.3633018463791 26.27059822335444 0 1 0
488 138 24 0 66.73580524615952 47.414077748294694 27.79009781243763 0 0 0
778 428 24 0 79.04970281697697 47.17666914552805 25.884438149305513 0 -2 0
542 192 24 0 73.07442606805697 43.605555009342666 26.198686619898798 0 0 0
1614 1264 24 0 79.06824245371179 44.40540783858383 21.723547700484335 0 -1 0
551 201 24 0 45.18390052444403 51.5444352308857 26.61976578957449 0 1 0
704 354 24 0 40.87778193010826 53.767460964925654 25.411184089452682 0 1 0
1437 1087 24 0 46.662328542007096 54.8964948671924 22.850674991826754 0 2 0
545 195 24 0 44.41871262353892 56.7469353421219 27.736095413594416 0 2 0
599 249 24 0 49.86408303345434 55.47773775064432 26.606648991583935 0 1 0
933 583 24 0 54.61985451081079 50.785635430245286 26.93477281368297 0 0 0
1311 961 24 0 51.701785722952195 53.623632553422674 22.34560410032277 0 1 0
415 65 24 0 60.78422400084393 50.40594114237621 23.092964734992346 0 0 0
497 147 24 0 59.25071911969184 53.90321566791998 25.8098006944953 0 0 0
1137 787 24 0 64.40296659646577 51.69055376642204 25.3505191675109 0 1 0
709 359 24 0 70.12278727829381 52.2130736724936 24.099961963157508 0 0 0
528 178 24 0 65.401706859407 56.37204844990491 23.61059343498067 0 0 0
724 374 24 0 67.16089452116698 55.32412597375913 28.26655389391109 0 0 0
1625 1275 24 0 76.25342984945884 51.31413873580182 25.56063618010338 0 0 0
1688 1338 24 0 74.84540210488021 56.454342427453426 25.07137170551846 0 -1 0
1209 859 24 0 45.528684755828785 59.79766226863347 21.95021050881974 0 2 0
696 346 24 0 41.250799864778394 59.501926758574854 24.728051038839197 0 2 0
375 25 24 0 43.91248958848529 64.15089060711763 24.433655802265815 0 3 0
517 167 24 0 48.86922318873442 60.243334001846605 25.810659160831978 0 1 0
568 218 24 0 53.59546356707087 62.93393664274222 25.217339816363573 0 2 0
558 208 24 0 55.894466323523545 58.40063696467912 25.019000903729008 0 1 0
582 232 24 0 61.32370144207024 58.54449346699549 26.23112262531998 0 0 0
494 144 24 0 60.22716353374941 60.616683664770534 21.89275037310067 0 0 0
1200 850 24 0 57.28639418381902 61.81381967609626 28.583212219007933 0 1 0
1182 832 24 0 61.52940689014176 63.717230942041596 25.934058443696422 0 0 0
727 377 24 0 66.05964354973344 62.835110700746846 24.020640313515823 0 0 0
1256 906 24 0 69.51485036132954 59.43077988653474 24.71645764653453 0 0 0
1759 1409 24 0 69.7293296032593 62.932441081296545 28.42815450926509 0 -1 0
1754 1404 24 0 65.7768328901071 60.057528733039625 28.166189360154515 0 -1 0
1510 1160 24 0 79.17673666871592 59.194814605628636 24.844098718041575 0 -2 0
1706 1356 24 0 74.44958737539088 62.09404340777461 25.172318134254144 0 -1 0
586 236 24 0 46.96300730500956 68.92986726792259 23.60111872274315 0 2 0
513 163 24 0 42.5683480815115 70.42271935759975 24.82157440758764 0 2 0
1279 929 24 0 46.9558188099877 69.80259229659632 28.59710854241105 0 2 0
1175 825 24 0 55.09424877607326 71.9416693521325 22.574191637806926 0 2 0
1341 991 24 0 52.57861512462733 67.35384807301557 21.862407548443887 0 1 0
2081 1731 24 0 48.59687769488279 65.13735242677133 27.718992729044995 0 2 0
611 261 24 0 51.48415194691858 70.43218219954295 25.828895932474076 0 2 0
1105 755 24 0 56.13312456106571 69.31610053423816 27.320077583428514 0 1 0
758 408 24 0 57.46446104116384 65.80393940393881 24.282278842296595 0 0 0
1237 887 24 0 59.8246113506436 70.4564003176112 23.665390209745954 0 2 0
1712 1362 24 0 70.74505444871997 65.77514727312008 24.392205062745056 0 -2 0
1604 1254 24 0 65.49681490409732 70.35493524575776 26.434594885408135 0 -1 0
1051 701 24 0 66.56301636021344 67.57066737511185 22.610810207016495 0 -1 0
1486 1136 24 0 69.33257821174438 68.34987057394883 28.72366031143415 0 -1 0
1066 716 24 0 75.5593540169263 65.98136947129126 22.176321566001928 0 -2 0
846 496 24 0 77.2578045204808 70.86699347675216 23.988922156225755 0 -3 0
1808 1458 24 0 74.52054510608154 66.73020656834362 27.40056818837299 0 -3 0
1080 730 24 0 72.71113418598033 71.0709071412443 26.768495580270017 0 -2 0
866 516 24 0 79.7550769694264 65.38760656494814 25.19056374193758 0 -3 0
1523 1173 24 0 45.33445876192229 36.68032501279854 30.11161622478023 0 0 0
354 19 17 0 41.21702369210869 37.83418603955699 32.15072228002779 0 0 0
355 19 17 0 41.10845324378479 40.44091465394913 33.41417761627813 0 0 0
353 1 18 0 44.07240558111093 38.79621356957036 33.68122713305786 0 0 0
319 1 3 0 44.25123976634641 41.72457045466568 31.868316368863706 0 0 0
352 1 3 0 47.16699953983436 40.29553423634872 33.74123917076928 0 0 0
351 18 22 0 46.74479077823842 39.74293577300352 33.650861223953896 0 0 0
322 1 18 0 43.891921418139624 38.17196414176029 34.8389382511764 0 0 0
321 1 3 0 41.85015921742487 39.74264617264872 32.8454814906204 0 0 0
320 1 12 -1 47.88861038291737 41.60132925319559 31.13386585467235 0 0 0
252 10 17 0 51.18861372136208 38.48897163433772 33.389869950048144 0 0 0
254 10 23 0 53.31367700534423 37.88206232159329 31.57004301234692 0 0 0
65 3 16 36 51.1449182357049 39.96491918834235 29.62199414515229 0 0 0
253 10 17 0 54.07552940215852 38.89659677746171 34.15163971155099 0 0 0
356 19 3 0 49.61129259994082 42.25752956090699 34.15047660622966 0 0 0
255 10 3 0 51.9784024965416 39.614910692655585 35.27778139205571 0 0 0
64 1 15 36 49.00351886668128 37.76366038235297 30.96319606462032 0 0 0
793 443 24 0 54.066670072776404 42.87829132431295 31.563773348428374 0 0 0
10 1 4 0 61.042981061632744 36.255672190804326 34.29962558735418 0 0 0
900 550 24 0 58.08479729569622 36.04095413557992 31.07025717708289 0 0 0
208 1 2 0 60.853394561509155 40.73485572026104 30.253083811861824 0 0 0
7 1 3 0 58.43911945526735 41.13728007321688 33.28695032934674 0 0 0
9 1 3 0 58.624358288948805 38.38075818775786 35.41650948794764 0 0 0
5 1 3 0 60.59643513099283 41.9569801771135 30.755310065035598 0 0 0
207 1 3 0 62.25004377899328 37.45303947396028 29.62604447349922 0 0 0
206 1 4 0 62.01699480477266 40.7531646579052 30.59824884791145 0 0 0
209 1 6 0 63.14154738749009 37.655330370802716 33.07357288833489 0 0 0
6 1 5 0 58.288712614679326 42.29435334347882 32.01171883291871 0 0 0
186 1 6 0 71.13186095085112 38.98667389724527 34.95277390923063 0 0 0
189 1 4 0 70.41151566709654 38.70122289994567 34.77113680384667 0 0 0
708 358 24 0 66.89481418239184 37.81887732900271 30.16077719868543 0 0 0
195 1 22 0 70.82673024499941 37.072018640821106 30.454595044721586 0 0 0
190 1 6 0 71.37996457079748 38.74889651024807 31.360156333455503 0 0 0
187 1 7 0 71.27872022755948 37.23569302632364 32.911406563197865 0 0 0
191 1 7 0 70.0692614667451 41.05235373478897 31.75875859562906 0 0 0
400 50 24 0 66.61447083381498 40.414287059459824 34.570287878412095 0 0 0
193 1 7 0 71.49303750674254 39.627993080224165 30.30413210527204 0 0 0
192 1 6 0 71.11769938173188 42.296722413371334 30.33952549726536 0 0 0
454 104 24 0 66.36705580938822 42.78697998710762 29.58596575873434 0 0 0
95 1 4 0 65.91398293376872 36.23798506656014 34.77093643507116 0 0 0
188 1 3 0 70.7261148302124 36.00339817209226 32.71087989302096 0 0 0
1834 1484 24 0 79.934285384655 41.513209266644076 32.81466545617558 0 0 0
171 7 17 36 76.04013874179088 36.43380577317834 34.15705332884612 0 0 0
172 7 17 36 77.8865735175474 38.609187386864086 34.81960504730293 0 0 0
159 1 9 -1 78.26539231963137 37.95298178632081 30.588337337363054 0 0 0
735 385 24 0 75.11827426824185 40.8289139350495 32.44618404017365 0 0 0
2003 1653 24 0 40.50493571109987 45.50278844168352 33.709554246459064 0 1 0
1014 664 24 0 45.302266823086285 48.488301786460184 35.42129431223552 0 0 0
317 15 3 0 46.215054967506205 43.91552780417002 29.966185815493343 0 0 0
318 15 5 0 45.81967514772316 45.10237952187505 32.70043172365988 0 0 0
934 584 24 0 44.07394015765176 48.356418136859986 30.33711085007572 0 0 0
719 369 24 0 40.64532818124957 50.07008845775253 35.41184309010986 0 1 0
357 19 12 -1 51.370068254609215 45.56332319734795 35.211579414798216 0 0 0
315 15 17 0 48.773620176077635 47.92184600124474 31.222628935283495 0 0 0
311 1 6 0 48.456074374894094 48.56022219661688 31.368016545172352 0 0 0
359 1 4 0 54.18314892694714 46.095799286306296 35.12405837844121 0 0 0
313 1 3 0 48.85560984249635 45.78542720220845 31.308660093878395 0 0 0
316 15 17 0 50.113542872788116 45.426611963985785 30.725925497818274 0 0 0
358 1 3 0 50.84941304441581 45.40431792851554 35.18464122868053 0 0 0
1031 681 24 0 53.00804221344918 48.481453477538025 30.80630259180386 0 0 0
366 1 10 1 61.757103559351634 49.014788718267354 34.42234068615709 0 0 0
365 1 8 0 57.95799907787839 49.44112443708606 34.60280884973689 0 0 0
247 1 19 1 57.17383921318969 46.72559348906749 31.063497504199788 0 0 0
3 1 3 0 61.77031062671421 44.85770995028217 29.352820618514446 0 0 0
246 1 8 0 57.59164538319337 48.86594713766908 34.023695614074356 0 0 0
245 1 3 0 58.242118586794255 45.80605367589863 33.297374646302494 0 0 0
243 1 3 0 60.622265424870584 48.29537215995586 33.73611256236266 0 0 0
244 1 21 0 62.250029775166226 45.86216440649161 30.876582017235897 0 0 0
242 1 7 0 63.076277375863036 46.029531971488026 31.348612024482694 0 0 0
655 305 24 0 62.36403809766451 43.33707014650697 34.785659566953946 0 0 0
241 1 6 0 63.688026725145356 48.05162423761529 33.02176072369225 0 0 0
248 1 3 0 56.462384591829405 44.515682383804204 35.92352777701347 0 0 0
2084 1734 24 0 70.22066137239747 43.84180555231607 34.4381276077171 0 0 0
238 1 3 0 66.74131092151154 46.66001720876114 33.29139862107743 0 0 0
240 1 19 1 66.83046587500098 46.89355464583304 32.929353072211285 0 0 0
1932 1582 24 0 71.13691369158244 46.80629006130533 30.75460159106054 0 0 0
236 1 14 0 68.52904692098325 47.4966990146912 35.709622967982696 0 0 0
1787 1437 24 0 78.30679211996423 49.38449868965899 34.90628777488113 0 -4 0
1831 1481 24 0 77.5178822069237 43.28601936075465 29.029061961176744 0 0 0
1547 1197 24 0 75.91606932638074 45.150477474446355 34.15455027031598 0 -4 0
469 119 24 0 76.05202445861381 48.85703251864932 29.91629618113264 0 0 0
2166 1816 24 0 72.3571594000124 49.898576521287374 34.624608824485044 0 0 0
1458 1108 24 0 44.573838790899735 52.93788382042505 31.715281477143115 0 2 0
451 101 24 0 46.46221336964103 53.62106531016061 35.97989053869872 0 1 0
307 14 3 0 51.634136251809025 52.110778758620484 34.72544411577895 0 0 0
721 371 24 0 49.92399344154141 51.87364909408814 29.39015357599393 0 1 0
309 1 3 0 49.441856330279485 50.732358463940415 34.007937508876765 0 0 0
312 1 8 0 48.550092500016525 50.683564459385266 33.39678073799207 0 0 0
361 1 4 0 53.84177377371226 50.87801148076872 34.80340774155271 0 0 0
362 1 3 0 54.75712166321357 50.54976163497533 34.9118758422998 0 0 0
744 394 24 0 49.08184043389543 56.423265623219024 31.99556703696444 0 0 0
363 1 12 -1 50.776539673065514 51.14317244115499 34.575948992246566 0 0 0
310 1 5 0 51.61046214023909 52.38979020660284 34.41614970852973 0 0 0
982 632 24 0 54.171846438856726 53.28321026144114 30.928582568824403 0 0 0
367 1 1 0 56.32085642254633 55.885339722535534 34.8963696623597 0 0 0
364 1 3 0 57.0368220780554 52.55750620488104 35.175121275460775 0 0 0
1000 650 24 0 58.2829789600984 51.85077338805888 30.86030331477608 0 0 0
2150 1800 24 0 63.00606503852967 55.98807585798834 31.014402217250943 0 1 0
1083 733 24 0 57.69256881557684 57.19590270060329 29.865319780698 0 0 0
2070 1720 24 0 63.11684513695026 51.22423482436443 30.461565270615598 0 0 0
576 226 24 0 60.743589925728365 57.4785153751771 35.11354750655476 0 0 0
2753 2403 24 0 66.36734627008492 51.462350132787165 35.52060123154941 0 1 0
2009 1659 24 0 68.63018751049903 50.74303900309254 30.98117001693687 0 0 0
441 91 24 0 70.87021293423777 55.388818752021166 33.42634239002459 0 0 0
810 460 24 0 72.80403824039249 53.27794319203149 29.020048407635976 0 -1 0
3039 2689 24 0 77.93913510404101 55.95765854758779 29.735758190844273 0 -1 0
2848 2498 24 0 75.66678846270102 53.42301398564266 33.033649408683594 0 0 0
1915 1565 24 0 44.678326325422375 61.7107763021689 28.952035296237927 0 1 0
1907 1557 24 0 42.22377309013139 58.215760757454305 32.033837910639335 0 1 0
1900 1550 24 0 43.31478596586044 62.85035671568165 35.18825747227514 0 1 0
2091 1741 24 0 46.80605561647729 58.70797039330433 35.60086508173184 0 1 0
466 116 24 0 53.14974085184743 58.47681250481519 29.38121989929935 0 0 0
2883 2533 24 0 48.22779600401175 62.76038046089551 32.3069589126173 0 2 0
368 1 8 0 54.72996403221948 58.09660867702881 33.40357251425251 0 0 0
1130 780 24 0 52.92049402030926 63.255045508358045 29.81778042096946 0 2 0
369 1 10 1 51.67783762576087 60.15562584491457 33.44314656159073 0 0 0
2808 2458 24 0 52.12084468490854 64.36507822881698 35.95674537328085 0 2 0
811 461 24 0 56.78412399602871 61.576326002895065 33.56473342913548 0 0 0
1213 863 24 0 62.24903277042797 61.8408963142015 31.995094413166758 0 1 0
2128 1778 24 0 66.02731338207657 58.1620992691253 34.909056637527605 0 0 0
1332 982 24 0 65.76887255323217 64.6189456092206 34.6879503828447 0 0 0
1876 1526 24 0 69.22274126838265 61.1169731732024 32.66375811634267 0 0 0
990 640 24 0 72.85749183722302 58.83067072561541 28.97386285328839 0 -2 0
1013 663 24 0 79.00928042019804 63.01790331564792 34.222888694685786 0 -2 0
764 414 24 0 73.95679761941658 63.958226888394115 31.203993570569597 0 -2 0
2361 2011 24 0 78.14027264169943 61.56766296039683 29.323461158836334 0 -4 0
1804 1454 24 0 75.80376055978039 59.18064156203039 33.07404620382014 0 -4 0
1964 1614 24 0 45.91878669992636 71.92245743965648 34.216448220481176 0 2 0
1223 873 24 0 42.79619901773045 66.18395836672468 29.16067329647858 0 3 0
700 350 24 0 42.14632627111655 71.30904863272487 30.421176729524806 0 2 0
1170 820 24 0 41.98204763663318 67.6647674476031 34.096317159431635 0 2 0
1271 921 24 0 47.44206865120456 67.47595340178418 34.6201491754405 0 2 0
1453 1103 24 0 51.76233344682695 70.62575234547732 34.82588164994924 0 2 0
2559 2209 24 0 51.66849331951304 68.10317115212874 30.148279138150677 0 3 0
1221 871 24 0 55.918073195695904 66.19393249484507 32.49126647809401 0 2 0
1593 1243 24 0 58.201568675864685 70.72664149897942 32.35077115124408 0 -1 0
496 146 24 0 59.88827120389816 66.69083287002857 29.096466640823895 0 0 0
503 153 24 0 60.51736731955422 66.41438737845681 34.29725472490851 0 0 0
452 102 24 0 65.20737673867528 65.45225185267556 29.18311160988387 0 0 0
1612 1262 24 0 70.27623847004348 65.7651697376832 33.54572596837071 0 -2 0
1595 1245 24 0 66.35945145738114 69.53947219606997 32.806843037890694 0 -1 0
1533 1183 24 0 74.5126478698112 69.25428638078198 31.794624148624827 0 -2 0
1680 1330 24 0 77.64933280885396 67.60599361448976 35.54792917823575 0 -1 0
1061 711 24 0 79.41951878711264 71.75734843771222 33.67861190403512 0 -6 0
1653 1303 24 0 78.40993556461075 66.8753996375843 30.42710556015814 0 -3 0
1127 777 24 0 41.42218047323796 40.806187896038146 37.67608226470593 0 4 0
323 16 17 0 46.67507368796146 37.72720432922873 36.660292255860234 0 0 0
1041 691 24 0 43.669985544994034 36.854129744242535 41.793141357719236 0 0 0
324 16 17 0 44.218721669470405 36.83365689538964 37.94676274178866 0 0 0
350 18 3 0 45.90077830946477 38.763518184998965 36.726789756719846 0 0 0
1826 1476 24 0 44.88477904280499 42.1316743110785 41.21392698003438 0 1 0
2197 1847 24 0 49.26778375954107 42.125828296561856 38.81084125735387 0 0 0
2511 2161 24 0 54.07911290366754 40.83358790140442 40.99854383228593 0 0 0
257 1 3 0 51.344839009204705 38.05312920669841 38.18289154367202 0 0 0
3180 2830 24 0 48.33283720863359 38.27249727081429 41.79654191529438 0 0 0
14 1 7 0 55.75071052934274 37.177589907034196 40.213072743885895 0 0 0
256 10 4 0 50.65569928904335 37.86406404460535 38.242343984221485 0 0 0
258 1 11 0 54.037114837003045 36.63409433056681 38.41235157024514 0 0 0
251 1 15 0 51.945061882776315 39.518983576579636 36.11398098410695 0 0 0
250 1 3 0 55.1011358789741 41.38140007709181 36.33306201072869 0 0 0
11 1 6 0 56.042346189695586 37.791950143404016 37.263204549619566 0 0 0
282 12 17 0 58.158401399971304 42.8252854623528 39.89249393852247 0 0 0
283 12 17 0 58.22637969696633 39.913963204338174 39.9108351876896 0 0 0
223 8 17 0 63.16888796326437 38.493296140580426 37.84349446830714 0 0 0
281 11 18 0 58.54161591786014 41.42858436550147 42.93488902194676 0 0 0
225 8 23 0 61.311184055620835 40.679898592688005 37.63052052022669 0 0 0
224 8 17 0 62.299772933961094 40.04284076609123 40.22464433849721 0 0 0
2056 1706 24 0 60.21906093509835 36.61376723280038 42.300374628308624 0 0 0
222 1 15 0 63.91967481671243 37.55808501467003 40.612243882633585 0 0 0
8 1 4 0 57.03323849261 40.97859122572697 36.638141180695946 0 0 0
249 1 4 0 56.2395854022922 41.343789417854914 37.058667412996485 0 0 0
221 1 3 0 64.59586861039152 40.539847659715214 40.502022694057516 0 0 0
232 9 17 0 66.71630681160924 38.54694559907591 38.08038298246033 0 0 0
219 1 6 0 66.39236056403016 37.982012559641355 40.830316929791806 0 0 0
233 9 17 0 68.33294842203519 40.926096107561094 38.10950902070458 0 0 0
227 8 12 -1 70.14306144596057 39.93973585037999 42.27483526844844 0 0 0
229 1 21 0 69.48336987402452 39.66163852144868 42.17262016801443 0 0 0
231 1 18 0 65.88200294420469 40.855256440974735 40.44409400085732 0 0 0
228 1 3 0 67.85210850186483 41.18660225550234 39.187676970783855 0 0 0
226 8 3 0 66.86969611133514 42.31379955255713 42.11440442198778 0 0 0
230 1 3 0 65.44288718995543 42.9636739368521 38.37342239954379 0 0 0
217 1 8 0 69.43977954562367 38.72118060788089 42.763050879639195 0 0 0
178 1 3 0 75.82159544580992 37.68412354008871 38.69138786192909 0 0 0
181 1 8 0 73.51349936313659 39.10605893187476 37.374823858144524 0 0 0
182 1 3 0 72.11359199675053 40.5914915085072 37.91833219953701 0 0 0
180 1 6 0 75.98279690288207 40.64663963038582 37.3498397740866 0 0 0
179 1 5 0 77.26224657798562 40.00248332626961 39.162222816630944 0 0 0
2722 2372 24 0 79.3404041062798 38.415100808578124 42.05808669705795 0 0 0
183 1 9 -1 74.45454365143793 37.561367907274594 37.86918273008925 0 0 0
184 1 3 0 74.01719281353529 38.049500599113024 36.57701939117225 0 0 0
2147 1797 24 0 79.75927353100094 43.17405647935635 39.096952483678294 0 0 0
870 520 24 0 45.255977311705 43.68290019331946 36.408258787229755 0 0 0
2105 1755 24 0 41.93319007268337 49.20511922014928 42.749878798534375 0 1 0
574 224 24 0 41.41015709530022 45.8839681724216 38.65607666170368 0 1 0
2865 2515 24 0 40.475208920466685 43.6022258325132 42.90743891464553 0 6 0
2357 2007 24 0 48.02629372315083 46.7434063349076 39.59488210153302 0 0 0
291 13 17 0 54.398502141434975 44.75093584202279 42.32486511791365 0 0 0
290 13 17 0 52.72377278288016 46.035766675788075 40.219217690258 0 0 0
288 1 3 0 54.12930544009197 45.95197769413265 42.393050497636054 0 0 0
305 14 17 36 52.247905281393066 48.62468968951838 37.78946350042336 0 0 0
293 13 3 0 54.58184212289123 49.54404750023447 42.69382656943635 0 0 0
292 13 23 0 51.5768624799847 45.0594437678719 42.631509231565104 0 0 0
287 1 9 -1 55.35620682606488 48.83126857081303 42.59861872343621 0 0 0
298 1 9 -1 50.66470208180194 50.11069088158734 41.26542096096332 0 0 0
295 1 14 0 51.5288916148247 50.14567817912265 41.592295921489274 0 0 0
289 1 15 0 55.53656603541123 45.21070319089754 39.579938916319094 0 0 0
360 1 3 0 53.75645428243173 47.172517852637135 36.054044616261734 0 0 0
2133 1783 24 0 61.606033036733436 43.922718264824155 40.82671576895506 0 0 0
304 14 17 0 60.143951999149245 46.02888924371734 37.13834795267697 0 0 0
2254 1904 24 0 57.52077660429447 48.83084158532743 38.41008058333655 0 0 0
2020 1670 24 0 62.701581050026675 48.43445657589184 38.680033049675046 0 0 0
2503 2153 24 0 59.90889568142547 48.21398925261742 43.06520183116736 0 0 0
235 9 4 0 66.43398434236148 43.797772917713516 40.30851134785284 0 0 0
237 1 8 0 65.83766937571538 46.42505348739115 37.122054280970445 0 0 0
234 9 3 0 66.16250554968506 45.721293861978836 37.260364342335144 0 0 0
239 1 8 0 66.92156522317805 46.130062338701855 36.34910854159182 0 0 0
2089 1739 24 0 70.51755212512148 45.35212391959565 39.14953150541515 0 0 0
1870 1520 24 0 65.55853298223496 47.31410465030937 42.881269156008166 0 0 0
1934 1584 24 0 75.33889367326351 45.121795006488256 38.86376274893131 0 0 0
1732 1382 24 0 74.07594980097137 49.85050963989776 40.03399103231287 0 -2 0
2375 2025 24 0 77.41672654652389 46.816851482941594 43.13255151312477 0 -1 0
518 168 24 0 41.9968024342897 55.78319454302523 36.42494717419767 0 3 0
2416 2066 24 0 46.14728816259086 51.087278370176385 41.03437276043997 0 0 0
2603 2253 24 0 43.58696663198616 55.854617853360025 41.81658280941711 0 2 0
302 1 15 36 48.73717527139842 50.59915809328545 37.43782201151261 0 0 0
306 14 17 36 54.110176595821066 50.59761357883157 38.88442535713845 0 0 0
1392 1042 24 0 48.099282946933876 55.3871138048334 39.95339318788396 0 2 0
301 1 3 0 51.47503809642864 52.209763437476056 37.9714977141502 0 0 0
294 13 12 -1 53.776610420385744 53.32852651359498 41.37157049452994 0 0 0
303 14 16 36 50.79189837191076 53.02414516659617 38.56132980841028 0 0 0
299 1 3 0 53.74501110917253 54.86337553913327 39.68629024759083 0 0 0
300 1 9 -1 51.78543004878425 53.285656931909095 42.20130390417867 0 0 0
297 1 3 0 52.6746814393835 53.10267297774376 42.462995675500395 0 0 0
308 14 12 -1 55.1938162810664 53.15263504305608 36.25524044372852 0 0 0
2527 2177 24 0 51.054759962205374 56.52249117991569 36.09010966484638 0 0 0
2261 1911 24 0 58.68571927537633 52.63472341446382 41.13278466152026 0 0 0
1983 1633 24 0 63.18920627096531 56.65368257259113 39.44491178612784 0 0 0
1910 1560 24 0 63.73405083983019 52.059301833354596 41.76959330150987 0 0 0
767 417 24 0 58.378981269575746 57.50452757411891 39.55283860931145 0 0 0
2425 2075 24 0 61.59623177301873 52.878185732177 36.29539112269864 0 0 0
2057 1707 24 0 68.88052842290404 50.46645208715694 39.94806550643267 0 0 0
1936 1586 24 0 67.51318939545467 54.89193646314012 38.8762362209905 0 0 0
2523 2173 24 0 78.38518968373953 52.4328710552132 39.33799808045622 0 -4 0
2992 2642 24 0 72.67955774383961 53.937973366633756 37.56802807604436 0 -4 0
1663 1313 24 0 76.53031724530155 57.30515363466596 37.7701593103038 0 -2 0
2213 1863 24 0 72.04470800405106 53.91620006403078 42.70243044788307 0 -3 0
2763 2413 24 0 44.01690113611735 60.02694280158646 39.278557976670776 0 2 0
460 110 24 0 49.27462554011163 61.10957351324005 39.113339236200865 0 2 0
2380 2030 24 0 51.621083707504674 58.34802806517753 42.93126160267047 0 0 0
2842 2492 24 0 54.255192576870556 59.72942488926723 37.484816563159576 0 1 0
2013 1663 24 0 53.604426372803154 64.70577351882245 40.83604658230733 0 2 0
2655 2305 24 0 57.94521357240945 61.26758903904822 42.53546104085267 0 2 0
1823 1473 24 0 57.86692538956052 63.862887690433375 37.976066718656405 0 2 0
1858 1508 24 0 62.31598932235703 61.293881136118365 37.437988794357054 0 0 0
2664 2314 24 0 62.66707006656064 60.61338011476428 42.621139839418454 0 1 0
2333 1983 24 0 71.07191928693506 58.60175884077631 41.79619158439307 0 -2 0
1866 1516 24 0 66.89498627572577 60.44219693351029 39.42514773485793 0 0 0
1664 1314 24 0 69.44897501306178 64.54431549436063 38.23319131880655 0 -1 0
3259 2909 24 0 76.58259710090695 57.617025133900704 42.401386603597174 0 -3 0
1094 744 24 0 72.11003250597219 59.334160706877995 37.08916851499737 0 -2 0
1099 749 24 0 73.12529584343858 62.744538088841104 41.183864225183115 0 -2 0
1495 1145 24 0 75.07365086706821 63.42791760405902 36.596397735694566 0 -2 0
2257 1907 24 0 79.29797021880321 61.167284936565984 40.69226241687407 0 -3 0
1921 1571 24 0 44.94559458411406 64.89845137305838 40.04630400074462 0 2 0
2151 1801 24 0 43.871724870186235 69.58766045242383 39.185327236532956 0 1 0
2027 1677 24 0 49.53834963258937 67.73973292410747 39.65284876408777 0 2 0
1313 963 24 0 53.40940119039628 70.71489225161862 40.61701073305816 0 2 0
550 200 24 0 62.46629510912653 65.80128818788857 38.811933672602144 0 2 0
3051 2701 24 0 63.05293595401353 70.44614511649048 42.23331495858213 0 -2 0
569 219 24 0 56.33214395615241 68.7236440100972 37.040751074450135 0 0 0
1913 1563 24 0 58.2983729602076 71.5736519093794 40.41551956439367 0 0 0
2829 2479 24 0 61.7161384724738 71.55518435069223 36.92174331856379 0 0 0
1740 1390 24 0 65.86467566361833 65.74476266265353 42.85289349422141 0 -1 0
3001 2651 24 0 70.62700152218932 67.13180794361732 42.051663680820184 0 -2 0
1479 1129 24 0 66.66820638167385 69.14664312923931 38.668392377731095 0 -1 0
978 628 24 0 70.94411474989728 69.98565604180769 36.43690252015293 0 -2 0
1669 1319 24 0 74.95828557483041 67.52426950885602 39.46620767673295 0 -2 0
2322 1972 24 0 45.48616134980224 40.530384575361204 45.83577361614741 0 0 0
26 1 6 0 55.23134672457166 36.01910259302264 43.68984017297932 0 0 0
27 1 8 0 52.338473080428486 36.142383036731154 43.82987443698645 0 0 0
24 1 8 0 51.08836927136785 37.37606770997795 44.75193476455499 0 0 0
22 1 9 -1 50.128406620775955 39.76707061808069 49.85289128428362 0 0 0
25 1 10 1 54.50918782674045 39.481419648600536 45.15191545643277 0 0 0
23 1 3 0 54.15949363991161 38.08653290684123 45.66784158753423 0 0 0
21 1 3 0 51.30265950017965 37.88397430732155 47.03470281848487 0 0 0
2276 1926 24 0 54.502125754364485 40.97495966168245 49.60142890854349 0 0 0
2555 2205 24 0 50.532494604898766 41.91434773294496 44.467215128496434 0 0 0
279 11 20 0 59.154956776347106 37.52412147332728 48.33723481605222 0 0 0
280 11 3 0 57.64094819207945 41.16563380896974 45.579053247596235 0 0 0
2068 1718 24 0 62.32252743410802 40.45140148302752 44.49360503233552 0 0 0
276 1 3 0 58.599937130072284 37.747976200285834 47.17544951267984 0 0 0
1856 1506 24 0 60.31715958652393 42.54369068281323 49.845626216609475 0 0 0
278 11 16 0 57.472930276729784 36.33317297255071 46.593068586983826 0 0 0
2465 2115 24 0 63.01887399589253 38.63365382328978 50.149386896179195 0 0 0
215 1 11 0 64.30277458666457 36.15147018084903 43.68771059954018 0 0 0
216 1 3 0 67.36208339250996 36.00937386567243 43.22065285476609 0 0 0
2075 1725 24 0 67.22695147052488 36.09952435921297 49.46185956766475 0 0 0
2042 1692 24 0 70.9443692986806 37.28587093849165 46.57730590612638 0 0 0
1888 1538 24 0 66.78809716954731 39.87897637964824 46.49568869608276 0 0 0
218 1 10 1 67.4291396517916 36.00954217756476 44.08072060546523 0 0 0
2189 1839 24 0 72.323341118597 41.8680893793786 48.131936926287516 0 0 0
2600 2250 24 0 74.97992337609452 39.15112051624931 44.17776723798824 0 0 0
1919 1569 24 0 78.41384180687012 42.31219665040181 45.69281707557428 0 0 0
1881 1531 24 0 74.90428423417113 38.06853864607692 49.38639967143337 0 -1 0
2517 2167 24 0 42.06801311152939 43.41647011307962 47.65522233250921 0 0 0
2155 1805 24 0 41.87301259308781 48.38440969405506 47.627774669393695 0 6 0
765 415 24 0 45.69644816722813 45.910982761962806 44.275740814722106 0 0 0
2816 2466 24 0 47.726955018773815 43.6799606358904 48.80622050028522 0 1 0
2671 2321 24 0 46.99076897790679 49.10363465606662 47.32972381956557 0 1 0
2219 1869 24 0 51.51491375667663 46.38073777668255 47.28913220229691 0 0 0
296 1 8 0 49.29204726081721 48.82533894784452 43.37717763981947 0 0 0
2120 1770 24 0 55.42359996760351 48.282958287781355 50.35068443744844 0 1 0
285 12 8 0 56.32911759667513 45.525000647569925 45.865599669460345 0 0 0
286 1 3 0 56.167494070522565 45.859404708078145 44.89889072316076 0 0 0
284 12 14 0 59.0786968224637 43.72296632730638 45.5852363864381 0 0 0
2491 2141 24 0 59.809013906766246 47.239500120714084 48.05177930776306 0 0 0
2538 2188 24 0 63.69133092123861 44.467107941141556 46.770975683877175 0 0 0
2086 1736 24 0 69.03328473772646 45.04208871540216 45.56644995463487 0 0 0
2185 1835 24 0 65.91163951355558 48.93522536299695 48.43957930146579 0 0 0
1909 1559 24 0 71.50157614602125 48.684403259203755 49.142201946311516 0 0 0
2036 1686 24 0 71.96073200263133 48.89382777965802 44.12392624457712 0 0 0
1893 1543 24 0 72.99171824096447 43.82458267360232 43.39575262481373 0 0 0
2115 1765 24 0 75.42119440134759 46.48283718064199 47.482289819322624 0 0 0
2138 1788 24 0 44.08028100190031 52.84791443705865 45.64122151060736 0 2 0
4997 0 24 0 42.189964421669075 53.23276943131918 49.76744762050846 0 4 0
2700 2350 24 0 43.77994071877427 57.59488699690282 46.387891700249064 0 2 0
2516 2166 24 0 51.719650450802426 51.08492990210055 47.0000513623088 0 0 0
2255 1905 24 0 48.551594569732416 54.964191723775016 45.14844731296234 0 0 0
2698 2348 24 0 51.9245581849805 57.25409069617757 48.0211203439264 0 2 0
2665 2315 24 0 48.5087680587499 53.38324635845337 50.20564131089256 0 1 0
2167 1817 24 0 57.244401909979935 51.52625988822361 45.86178414124826 0 0 0
2102 1752 24 0 62.327187787322785 51.31761648171191 46.32085319443162 0 0 0
1989 1639 24 0 61.52252543693123 57.10760897586648 45.838684785741364 0 0 0
1205 855 24 0 56.530051801767904 56.90245490362112 44.71266576155552 0 2 0
2285 1935 24 0 58.74080509382898 53.496716540637834 50.183410771153476 0 0 0
1865 1515 24 0 68.63307802013385 52.96063797161849 46.094061647990294 0 0 0
1407 1057 24 0 70.63165700138187 57.01906975058286 46.32308460598744 0 2 0
2060 1710 24 0 64.4130985287038 54.16432398227366 49.479349435480216 0 0 0
3206 2856 24 0 66.20790798231931 56.87127147139222 43.79775874191492 0 -3 0
3022 2672 24 0 73.70091658737567 52.78802440674807 48.8158792236926 0 -3 0
2396 2046 24 0 76.40530201853622 51.915631863936355 44.64717637696582 0 -3 0
3170 2820 24 0 76.99734183359796 56.777542004771476 48.33159572254397 0 -2 0
2885 2535 24 0 47.04801465241668 60.267929721566055 43.64902969031228 0 2 0
1990 1640 24 0 42.68918287989194 62.12286601275611 43.686776568570046 0 2 0
2667 2317 24 0 43.37697825156528 61.690356202737 50.39339879760167 0 2 0
1868 1518 24 0 48.571877058958776 61.189636776065576 48.22671414909048 0 2 0
2860 2510 24 0 53.75607757533837 61.97967207853357 47.29367098670686 0 2 0
1912 1562 24 0 50.03335963045167 64.0410761229396 44.61156941450573 0 2 0
2904 2554 24 0 59.19374171566956 61.87867773646166 47.371878880177164 0 1 0
2006 1656 24 0 56.667031335863655 58.5643870476278 50.019933702883954 0 0 0
2039 1689 24 0 66.80516816650035 58.51807765337616 49.09620023018235 0 0 0
2897 2547 24 0 64.98981219780947 62.70682830144603 46.794686195058425 0 1 0
2338 1988 24 0 68.86988379516907 62.18746313425932 43.85536716232435 0 -2 0
2240 1890 24 0 70.839954691968 61.71716805154915 48.24424728682676 0 -3 0
2407 2057 24 0 74.16573825001774 60.172606459881194 45.53542262905442 0 -3 0
2458 2108 24 0 79.20145561323613 61.29156832987524 46.1855588105344 0 -3 0
1930 1580 24 0 45.80456705934766 68.61946415768831 43.52348744591522 0 2 0
1993 1643 24 0 41.28991471811876 67.11868652225633 43.904811602126486 0 1 0
2038 1688 24 0 43.468445349103526 70.36507780780893 47.64659360577066 0 2 0
1862 1512 24 0 45.667868461458916 65.1581656492111 46.77685694684975 0 2 0
1940 1590 24 0 40.86685724379042 66.34651627750497 49.49794073751903 0 2 0
2191 1841 24 0 48.14869977225984 69.76891541238146 49.10044371524371 0 2 0
1981 1631 24 0 50.33168203222619 65.5874589918306 49.06016749974972 0 2 0
2694 2344 24 0 50.92509565607013 69.12385690680254 44.642249311533135 0 3 0
2048 1698 24 0 53.14829550158174 69.78269068776838 48.89504375568118 0 0 0
2650 2300 24 0 55.61973956345124 66.2228044406227 45.39270710391165 0 2 0
1885 1535 24 0 61.04378549097019 65.18957258611918 43.92680185054753 0 2 0
2820 2470 24 0 60.12028683611856 66.2520939186664 49.47133372377269 0 3 0
2267 1917 24 0 61.806878002393155 71.7295880785471 47.22073497737954 0 -2 0
2346 1996 24 0 67.60344956598777 70.38814456137297 44.663141610395 0 -2 0
2414 2064 24 0 69.40217838082677 66.48688202072915 47.30459184633669 0 -3 0
3211 2861 24 0 64.62571722070733 67.6079116074009 47.91971457933594 0 -2 0
2282 1932 24 0 77.18018028276451 64.85996510694947 43.635656938293124 0 -3 0
2972 2622 24 0 74.16145835511942 65.17673845055701 47.80315727290273 0 -2 0
3149 2799 24 0 77.98314048200783 70.70362719218193 48.813964389310314 0 -2 0
2326 1976 24 0 79.42611844564526 69.25310112886898 43.84139949252759 0 -3 0
2973 2623 24 0 72.70388736907188 69.65136255866676 49.96476855044063 0 -2 0
3213 2863 24 0 74.09476341151209 69.72083738038465 44.807942254371454 0 -2 0
2044 1694 24 0 41.21411471007274 38.02639031320204 51.45885030608225 0 5 0
2598 2248 24 0 40.79284328097634 36.06639975011508 56.09532266875974 0 5 0
1988 1638 24 0 46.00410117873607 38.081999230700006 50.47459756831739 0 1 0
2747 2397 24 0 43.88288328409972 39.57834627555534 56.04577217990689 0 6 0
2461 2111 24 0 47.74435846545447 41.39670250698669 53.290782985648924 0 0 0
2209 1859 24 0 48.24707857163793 36.42327419709391 55.20690398960009 0 0 0
2739 2389 24 0 52.14052260864845 39.39267195682834 54.02286391408465 0 1 0
3129 2779 24 0 53.70992231038258 36.02169916907649 50.92204721271216 0 0 0
2098 1748 24 0 56.03749653418344 42.30990144209792 53.998237101097935 0 0 0
2355 2005 24 0 60.94608973612912 41.56670176988003 54.85719391484907 0 0 0
2551 2201 24 0 58.29780244723614 37.487805345761615 52.30154892928692 0 0 0
2131 1781 24 0 57.495732878603654 38.72179374114906 57.28307398375761 0 0 0
2148 1798 24 0 65.70692921366285 41.043803818928666 53.56939191181263 0 0 0
2903 2553 24 0 71.32355044304246 40.62006308662009 53.664975380863375 0 0 0
2498 2148 24 0 78.90117043682973 36.586210581956834 57.4070917163564 0 -4 0
2390 2040 24 0 76.75960780580002 43.06988589382892 50.97297797892597 0 -4 0
2413 2063 24 0 76.15144691974034 41.21762833920722 55.30808474307981 0 -2 0
2348 1998 24 0 74.36623865886986 36.94511415799786 54.237452545388486 0 -4 0
2472 2122 24 0 79.35902941838357 38.102637663295155 51.59734655598746 0 -4 0
2159 1809 24 0 46.159517898241745 45.633661839954264 54.33684158354195 0 1 0
2590 2240 24 0 41.9389946414053 43.37514915324135 52.709764702618685 0 6 0
2800 2450 24 0 42.97967631324213 48.83318080141663 56.1361780376937 0 5 0
1904 1554 24 0 44.38795749764971 49.43703136487093 51.60454650254582 0 1 0
2662 2312 24 0 47.738799203680045 49.25047077160721 57.5044588755994 0 3 0
2548 2198 24 0 51.98381860383523 44.51309139628376 51.92708261416864 0 0 0
1837 1487 24 0 49.25755017515633 48.709893637816116 52.331451171307144 0 0 0
2624 2274 24 0 55.226404764099534 46.365317810069456 56.185036031132185 0 1 0
2602 2252 24 0 50.16737657777815 44.55319124181423 57.37896581532237 0 2 0
2246 1896 24 0 59.48897239720103 46.34639469647965 52.92097924368818 0 0 0
1916 1566 24 0 62.68738382919367 49.99919569859679 52.07360387207481 0 0 0
1822 1472 24 0 60.544174921273964 48.58969732154829 57.59303920353699 0 0 0
1901 1551 24 0 64.86293266354852 44.69898323107268 56.74968637142349 0 0 0
2513 2163 24 0 64.34259530909802 45.365724044753705 51.85314806017719 0 0 0
1933 1583 24 0 69.37324846192573 44.85665896242824 50.5086480172176 0 0 0
2656 2306 24 0 70.22388941238172 47.4497380513292 57.03712140704005 0 0 0
2059 1709 24 0 67.83048790090615 49.115791624185526 52.81547387757016 0 0 0
2834 2484 24 0 73.3157582077308 45.56279826893042 53.176439588969046 0 0 0
2524 2174 24 0 75.73890214959425 49.772414214969025 51.915075169331075 0 -4 0
2543 2193 24 0 78.34091808985411 46.13928059306594 54.16510988711944 0 -4 0
2576 2226 24 0 40.04495543686233 52.160608911119496 54.975863865246694 0 2 0
2891 2541 24 0 45.10113465019573 53.40975638242138 54.4397631224414 0 2 0
2054 1704 24 0 45.99471069936133 57.429607252829825 50.48202435499226 0 1 0
2558 2208 24 0 52.549992205621 50.597128458243574 55.90370791264095 0 1 0
2244 1894 24 0 53.24826590801746 52.702835299163894 51.48536564340268 0 0 0
2072 1722 24 0 54.88747891984762 54.55689363277225 56.63009322258932 0 1 0
2844 2494 24 0 51.08034880022023 56.44641051594899 53.60160900031972 0 2 0
1959 1609 24 0 57.87120528229376 50.91502650795536 54.369420130387354 0 1 0
2757 2407 24 0 62.490778753870224 54.570577823638935 54.09587568413797 0 0 0
2194 1844 24 0 58.511773765404776 57.25882316463937 54.290111308648065 0 -1 0
2095 1745 24 0 71.82979279717311 51.406616899844046 54.80308891014637 0 0 0
3245 2895 24 0 67.05329362503626 55.37125124632918 55.14303070809026 0 -1 0
3010 2660 24 0 69.4344972992489 53.882950737195465 50.95893422924758 0 -2 0
2749 2399 24 0 65.28877854236873 51.053876580365014 56.6817336211106 0 0 0
2233 1883 24 0 72.03227564540512 56.20856535491522 56.65720132808734 0 -3 0
3081 2731 24 0 78.36698617917304 51.09954155669735 56.22266579753215 0 -3 0
3093 2743 24 0 76.61676065014116 55.76956603615729 53.78144164514689 0 -3 0
2221 1871 24 0 79.93284139226847 52.872626013538465 50.92011168207497 0 -3 0
1941 1591 24 0 40.879312458411405 60.133189147560124 54.692182166312676 0 2 0
2744 2394 24 0 47.89945743648494 61.25253505190581 53.35715369166684 0 2 0
2778 2428 24 0 45.1474969414531 58.142941058867386 57.508675274321796 0 2 0
1891 1541 24 0 44.29826557645383 63.222220246736235 56.78859316933488 0 2 0
1839 1489 24 0 52.61456667482738 61.39610070612906 51.959195898135455 0 2 0
2111 1761 24 0 54.16683431308706 59.359811955992534 56.84375944969006 0 1 0
1938 1588 24 0 54.52212213631135 64.43298021919594 55.73101360938891 0 0 0
1874 1524 24 0 62.130919026638686 58.609783751936384 50.47416853300495 0 0 0
2032 1682 24 0 58.45049049009808 62.333402515406576 53.21277606581801 0 0 0
1949 1599 24 0 63.41366022544437 63.30351248479706 52.29082354997752 0 0 0
2382 2032 24 0 63.40382643475446 59.522450332803 55.44355167471902 0 -3 0
3257 2907 24 0 68.2631648704038 60.100036240422284 54.26239407947507 0 -1 0
3075 2725 24 0 68.41470987262878 63.842984171849764 57.24858107825611 0 -2 0
2917 2567 24 0 71.56123564310415 64.4700962733427 52.0269843758641 0 -2 0
2489 2139 24 0 72.47345516416857 58.11543239034486 51.318876892666594 0 -3 0
3254 2904 24 0 78.73110407878922 61.3506204121575 54.88536885335478 0 -2 0
3251 2901 24 0 74.13725868926441 60.358774910711155 55.845746730950765 0 -2 0
2252 1902 24 0 76.61452478694291 61.06926000977322 50.63415287665753 0 -3 0
2510 2160 24 0 75.80485387492394 64.6830723045288 56.09218389144021 0 -3 0
2785 2435 24 0 46.27039856610511 71.19620064404386 53.89878735842606 0 2 0
2879 2529 24 0 41.035848214277905 66.33941734027604 54.33733235509651 0 2 0
2149 1799 24 0 45.904355978247494 66.30393400751146 52.597870436060624 0 2 0
2681 2331 24 0 41.890252373759466 70.43008123713912 52.332214641380965 0 2 0
1840 1490 24 0 41.05584176439841 71.35633169437021 57.07442877602219 0 2 0
2822 2472 24 0 55.49860055352595 65.61241761315408 50.92737386794072 0 2 0
1977 1627 24 0 50.7489528124984 67.43094788243627 53.46979559777135 0 2 0
2092 1742 24 0 54.25864352947664 70.29419100168383 55.15667304719521 0 0 0
2216 1866 24 0 49.75324644995925 71.15977412636924 57.52711244890357 0 0 0
1947 1597 24 0 58.07597697608674 70.80419090403848 50.59570159601185 0 0 0
2041 1691 24 0 58.97793427481235 67.48638558499859 54.66409192991292 0 0 0
2969 2619 24 0 62.82575151609876 65.50405224328043 57.17585710785401 0 -2 0
2924 2574 24 0 62.96501556957622 68.64550271302527 52.73746314581016 0 -1 0
3092 2742 24 0 67.89699699256093 67.1536328439053 52.714448888593594 0 -1 0
2165 1815 24 0 71.83279806310854 68.48854618888888 55.22879464374182 0 -2 0
2379 2029 24 0 65.81393821903602 70.21946054325144 56.629442202999776 0 -3 0
2420 2070 24 0 76.56169573339403 67.21820171036516 51.41475442772623 0 -3 0
2993 2643 24 0 78.13865494551382 69.96345069519812 54.88523411412004 0 -2 0
2649 2299 24 0 43.881862868796574 40.51111739727549 61.05424511441882 0 3 0
2634 2284 24 0 44.35042702019661 37.41654651110392 64.69409076907277 0 3 0
1917 1567 24 0 52.82680514130796 36.18078736874268 58.25474421059886 0 0 0
1970 1620 24 0 48.909665970475366 36.741190686988105 63.244409245103725 0 1 0
2103 1753 24 0 48.94392683082297 39.69478062222436 58.92367541455998 0 2 0
2294 1944 24 0 53.90343767926354 41.497550102230704 58.85749499805292 0 0 0
2116 1766 24 0 52.17808314295083 40.5906612898278 64.58581377884826 0 1 0
2670 2320 24 0 56.50865576917011 38.830052649985696 62.777041104703926 0 1 0
1859 1509 24 0 61.97479376577312 40.66194384937785 59.496036090954874 0 0 0
2455 2105 24 0 60.51261029447121 43.16591682163571 64.69529131175628 0 -1 0
2202 1852 24 0 70.18464609362945 41.70327532797805 58.163265362291824 0 -1 0
2053 1703 24 0 66.80341128998546 38.633031120386796 60.20236882851194 0 0 0
3108 2758 24 0 65.26966855153809 41.73422000999372 64.0273873912458 0 -1 0
2932 2582 24 0 71.2300007312522 38.72427905345225 63.79609007913649 0 -1 0
3079 2729 24 0 79.438692402267 42.99728746425478 60.05695788300571 0 -1 0
2544 2194 24 0 74.26951580859658 39.07566989301128 59.718501461721694 0 -3 0
3090 2740 24 0 78.19041229325903 38.27397261915069 62.52206907933464 0 -3 0
3191 2841 24 0 75.03741394752575 42.72631328207703 62.87008183353328 0 -1 0
2141 1791 24 0 41.439368127055225 43.58894702901996 57.721328712990804 0 5 0
1995 1645 24 0 45.380160895384705 45.27552162868943 60.42723782671269 0 3 0
2604 2254 24 0 46.73280033324034 49.21082747251219 62.3374546379545 0 2 0
2572 2222 24 0 40.88982790816826 43.83627141179842 63.75700532531189 0 4 0
2789 2439 24 0 41.74431739956323 49.07693755314641 60.75219824882508 0 3 0
2022 1672 24 0 49.31488736493362 45.129749878427006 63.73559799779533 0 1 0
2179 1829 24 0 53.20431846756934 46.765746436258524 60.75824601335583 0 1 0
2984 2634 24 0 55.9436815246778 43.92066176455995 64.10923592130341 0 0 0
2337 1987 24 0 58.6111521712154 44.52802956131698 59.26155783387089 0 0 0
2024 1674 24 0 62.907199349371155 46.20467728015917 61.29672005715829 0 0 0
2660 2310 24 0 58.707845421004066 47.877594718704714 63.231174944620385 0 0 0
3147 2797 24 0 69.80047504612256 43.3641420488936 62.63774676897742 0 -1 0
2393 2043 24 0 67.45017915198416 47.36461080284884 61.374189951196946 0 -1 0
2831 2481 24 0 75.23311841844746 46.04601588658654 57.961621733712526 0 0 0
2504 2154 24 0 72.38777947052597 47.581287786802854 62.29459438263309 0 -1 0
2978 2628 24 0 78.00933695988344 47.58906056263741 62.03382928558212 0 -3 0
2076 1726 24 0 44.97184436280569 53.60739261344165 59.634836257511864 0 1 0
2621 2271 24 0 47.97660898955141 53.69454894744598 64.34979260226022 0 2 0
1942 1592 24 0 43.10223323034098 57.5063928063214 62.00369414887411 0 1 0
2894 2544 24 0 42.582384909616856 52.65244128380669 64.63871815919495 0 2 0
1925 1575 24 0 55.98399507518111 50.40727675825226 59.54755615470922 0 0 0
2157 1807 24 0 51.40973797870492 51.18800490786373 61.12385707821591 0 1 0
1973 1623 24 0 49.88408328369897 55.173204763969444 58.200143368761736 0 1 0
2703 2353 24 0 55.27098820368565 53.711546208290876 64.77042040356903 0 2 0
2473 2123 24 0 53.25630825637281 57.51312992025297 61.41000477799234 0 0 0
2381 2031 24 0 59.44155470235555 53.41874222890111 58.08019075652923 0 -1 0
2161 1811 24 0 60.04183781953049 53.026603446187444 62.661278520929194 0 0 0
2399 2049 24 0 63.391097524566675 55.98737924094348 59.008026632381295 0 -2 0
2182 1832 24 0 69.45183073534558 52.43921496343068 59.23123753174012 0 0 0
3056 2706 24 0 64.1786020847372 51.40614288243573 61.61757267964091 0 -1 0
2324 1974 24 0 69.45699460398072 57.027014604249125 63.12676572141227 0 -3 0
2484 2134 24 0 64.66364588184074 55.892290408281 63.8457615091218 0 -1 0
2537 2187 24 0 79.62325173953667 52.912801968378126 60.846006846412685 0 -3 0
2956 2606 24 0 74.50763303272805 52.35152671891839 59.40916921211378 0 -3 0
3012 2662 24 0 76.44382376746304 56.12685795970094 62.262252954944834 0 -3 0
2210 1860 24 0 78.75991100104248 57.37518693886494 57.85772100895774 0 -3 0
2626 2276 24 0 47.94742604618619 58.16242808341256 62.04556160379191 0 2 0
2866 2516 24 0 45.92426537480982 62.85469668629441 61.82554722876722 0 2 0
5249 0 24 0 40.41189456824204 63.02962097849635 60.855462284343325 0 0 0
2684 2334 24 0 49.96746490964441 60.578563010998344 58.15651465307703 0 2 0
2803 2453 24 0 51.35964572980035 61.67412230160825 63.33553258286524 0 2 0
1838 1488 24 0 55.44857515573393 62.633704552602566 60.946620477435296 0 0 0
3154 2804 24 0 58.282923143105094 57.64372977300871 60.510136464051136 0 -1 0
2692 2342 24 0 59.22030558508078 61.95364733545652 57.99377141746041 0 0 0
2750 2400 24 0 60.00766979559193 61.93451157301006 63.049880770713216 0 0 0
3176 2826 24 0 63.928779618002935 61.23631355964029 59.93739088081975 0 -1 0
3185 2835 24 0 67.70506697777392 58.316284746218884 58.85039574981738 0 -3 0
3096 2746 24 0 68.89121591546673 61.95314713371687 62.507054253313534 0 -1 0
3119 2769 24 0 72.4695296858383 64.52540487216469 59.758181274264594 0 -3 0
2329 1979 24 0 72.59718572421006 59.31097740797449 60.79979271356582 0 -3 0
2432 2082 24 0 77.57341857770632 61.596864609378365 60.29110330068451 0 -3 0
2940 2590 24 0 74.10202294732785 61.61021333199118 64.45563256996186 0 -3 0
1867 1517 24 0 45.10824988077888 68.07504443134299 57.86637527596675 0 2 0
2011 1661 24 0 42.617077890144316 68.02868946659837 61.98648863596458 0 2 0
541 191 24 0 48.42369834131755 69.21339295913101 62.31114332914031 0 2 -1
1972 1622 24 0 50.162370279745446 66.14316491575977 58.19336779567416 0 1 0
2171 1821 24 0 53.67107070767859 67.55510674370315 61.44340229614568 0 0 0
3033 2683 24 0 61.75778525310129 70.40901749880639 59.28956503937714 0 -1 0
2447 2097 24 0 58.376531091382006 66.39472090561347 59.629158765793846 0 -1 0
1048 698 24 0 63.788446994594075 65.617684887661 62.063922536529134 0 -1 -1
417 67 24 0 59.38236710420857 68.45688702228941 64.3401664323028 0 0 -1
2428 2078 24 0 71.21085955542762 71.97557348676979 62.77229031861939 0 -3 0
2499 2149 24 0 68.97413420633394 68.07945690370562 60.21430079215379 0 -3 0
2289 1939 24 0 71.45974586275165 65.69897739485093 64.21455732663696 0 -3 0
3238 2888 24 0 65.75340397207562 69.58342837859438 64.35123802924275 0 -2 0
2335 1985 24 0 76.9630927739793 65.66695360193246 62.97239455647714 0 -3 0
2222 1872 24 0 74.03524782335914 69.51050259613062 59.67345027637478 0 -3 0
2871 2521 24 0 45.731227250573774 40.58598754121699 71.97032778672458 0 2 0
5054 0 24 0 42.15163635140805 39.46091687555798 68.87564811094514 0 3 0
2704 2354 24 0 45.337701902659994 42.54797791915184 66.03269230763993 0 2 0
2063 1713 24 0 52.41200949342107 36.31271248060358 67.27789354373884 0 1 0
1832 1482 24 0 48.230401212990465 39.3477118077197 67.71554912333417 0 1 0
1306 956 24 0 51.7777778196898 38.74379851093288 71.46187966026942 0 2 -1
2637 2287 24 0 61.30318460086371 36.52801502200256 70.18942513956118 0 0 0
1335 985 24 0 60.112620982010746 41.864934936498464 71.66054919286196 0 0 -1
3163 2813 24 0 57.33334295528452 40.13395298785608 67.73127913888491 0 0 0
2927 2577 24 0 61.81007373074366 38.39800498953899 65.89382631574541 0 -1 0
1206 856 24 0 66.16546227679686 39.77068803332102 71.55832711303468 0 0 -1
2384 2034 24 0 67.12105482270572 36.297966007588016 65.01125474123391 0 -1 0
2435 2085 24 0 68.97613641477514 41.137324849495435 67.32851312029669 0 -1 0
2941 2591 24 0 79.06264572591556 36.2924839749427 67.3672964929393 0 -3 0
1059 709 24 0 78.52816001986227 40.0947993961763 71.00033381001602 0 -4 -1
1618 1268 24 0 73.32559132473048 40.11352202387994 71.4488040414662 0 -1 -1
2937 2587 24 0 75.84679035831603 39.90752548536399 66.97278165023098 0 -3 0
5060 0 24 0 40.84002051004139 48.55279954686964 71.02073078262606 0 3 -1
600 250 24 0 44.807621723853245 44.97756229330703 70.16574547271865 0 3 -1
4972 0 24 0 43.61669713620652 47.293753613022155 65.9363075138696 0 3 0
2852 2502 24 0 47.47345086465283 49.18035817749984 71.82765336010961 0 3 0
1902 1552 24 0 40.042288268497174 44.88224091510878 68.23048351849336 0 4 0
694 344 24 0 50.02902785289787 44.2684602044626 68.5781360401792 0 1 -1
2178 1828 24 0 53.601905254144626 48.07070506548582 65.66494083854406 0 1 0
532 182 24 0 52.40640751034024 47.970814501334424 70.83066043356446 0 0 -1
1267 917 24 0 54.977608138696176 43.99365681583473 68.86329722429956 0 1 -1
2901 2551 24 0 48.72690574363159 48.89596645795205 66.85327374830199 0 2 0
2193 1843 24 0 61.60486414458022 50.09312751965912 71.51947907850153 0 0 0
2805 2455 24 0 59.372009589058344 46.20454169679626 68.18447064710554 0 1 0
1928 1578 24 0 63.176196749909415 49.2879270438537 66.1608902280735 0 -1 0
2129 1779 24 0 63.876643455447734 44.471836004001275 68.084153349536 0 0 0
1064 714 24 0 71.03087317556454 44.61663630984051 71.50937654081314 0 -2 -1
3104 2754 24 0 67.88312670319854 45.986880787347644 66.42400682187842 0 -1 0
1592 1242 24 0 66.38405373705615 48.5476823465906 70.06688153240452 0 -1 -1
1636 1286 24 0 71.7197844022969 49.490540659932016 69.42922323679491 0 -1 -1
769 419 24 0 73.19140454958284 45.3720613210681 66.85404396330388 0 -2 -1
2278 1928 24 0 76.75369370605132 49.035250496738314 67.40474545178836 0 -2 0
2241 1891 24 0 78.65610002134589 44.1360897995483 66.03076582302204 0 -4 0
2552 2202 24 0 75.39805619476016 46.68414418967208 71.53360774618665 0 -3 0
2886 2536 24 0 43.43427366916093 53.02996154492467 69.7652996623144 0 3 0
2651 2301 24 0 47.93984748448932 54.66798142102504 69.66977875346821 0 2 0
2875 2525 24 0 44.91677787422295 57.52149560419147 66.90910959474257 0 2 0
1417 1067 24 0 52.37036543507818 52.16642104763239 68.41910590888746 0 2 -1
1183 833 24 0 53.056563645733256 56.646315391505695 71.23571385328358 0 1 -1
2896 2546 24 0 50.78722770588921 57.16952252994301 66.67650257532217 0 2 0
2018 1668 24 0 58.07459507199508 51.614734328963955 67.96666394274479 0 0 0
1920 1570 24 0 58.25105090708249 56.50674654960992 69.17661574428875 0 0 0
2853 2503 24 0 62.39943290178071 54.090166579477824 67.73985677670316 0 0 0
2478 2128 24 0 67.91963863811233 51.66852846172596 65.829543656185 0 -1 0
2919 2569 24 0 65.8662947175165 53.000842320214915 71.39694271167761 0 -1 0
3052 2702 24 0 70.15697721604408 55.811934817441404 67.64762969096934 0 -3 0
2986 2636 24 0 73.77307498520328 52.876426629904415 65.18820872175344 0 -3 0
2923 2573 24 0 79.7064234514543 57.05000916391046 71.35198301797111 0 -4 0
2266 1916 24 0 75.5143219335801 53.15082149804032 70.03850011088313 0 -2 0
3054 2704 24 0 79.17553779141134 54.076357400516144 65.3977360320092 0 -3 0
2046 1696 24 0 41.93192864580646 61.074389657838026 65.25048552902854 0 2 0
595 245 24 0 43.395058643219535 62.53596312752075 70.3802397935256 0 2 -1
2889 2539 24 0 47.56372343361951 61.741407152098446 66.36335524705036 0 2 0
1268 918 24 0 48.185377147032995 64.15511224938406 71.73908283029952 0 2 -1
1443 1093 24 0 48.67874556259994 59.263943650667606 71.04559544055454 0 2 -1
1299 949 24 0 52.111987065562445 61.507259339572286 68.31226800418627 0 2 -1
2661 2311 24 0 55.217563943253786 64.52987619683154 65.69787444537675 0 2 0
1961 1611 24 0 56.382371681538565 59.459842334385826 65.71391311356835 0 0 0
635 285 24 0 62.2361756841719 58.213326196740724 71.17586265788336 0 0 -1
559 209 24 0 57.64855268110651 62.155419443774115 70.00125587195865 0 0 -1
2104 1754 24 0 61.20820860947804 59.05316913240706 66.51029784708187 0 0 0
463 113 24 0 61.07625541311443 64.54877588380762 66.78126379464916 0 0 -1
1102 752 24 0 70.3703244768308 63.89308667379948 71.69002492066487 0 -2 -1
969 619 24 0 66.08623911730112 59.48083852839183 67.1959831798929 0 -1 -1
2437 2087 24 0 70.82419286526368 61.07029775289808 67.76481235135006 0 -2 0
3128 2778 24 0 64.83932241166575 63.04054103802076 71.06567431081159 0 -1 0
2369 2019 24 0 74.04491532810422 58.44200898697917 70.50456579553246 0 -4 0
2342 1992 24 0 77.62960640391309 58.845603396342455 66.65568289313939 0 -3 0
2368 2018 24 0 78.54374248243329 61.58951292186484 70.41749538160812 0 -3 0
1846 1496 24 0 42.684780316169416 69.667169002784 67.30568240153066 0 2 0
2795 2445 24 0 44.15896429863104 65.39703366372622 65.94804020131342 0 3 0
2144 1794 24 0 50.82357656327692 66.16304589573345 65.21946754150274 0 2 0
1210 860 24 0 52.976212927617176 66.79130009223476 69.93693006958509 0 1 -1
2802 2452 24 0 49.07892002254269 69.41346666023651 68.37189137812706 0 2 0
553 203 24 0 53.80981813824896 70.50038682710775 65.53301597606519 0 1 -1
610 260 24 0 61.558923890400834 66.49154680351195 71.3187228849783 0 0 -1
2486 2136 24 0 63.5091749165904 70.34526179639954 68.70627434408813 0 -1 0
1391 1041 24 0 57.28918120532494 68.3678064081345 68.61595537832184 0 1 -1
3212 2862 24 0 67.30873641729276 68.04890543476118 71.3602931612499 0 -1 0
908 558 24 0 69.58348971112096 70.22042988338626 67.32708103120866 0 -3 -1
2281 1931 24 0 66.302708896569 64.97141647028207 66.35373970648786 0 -2 0
1710 1360 24 0 78.23463973535074 71.29051127897517 69.13949988610504 0 -3 -1
2225 1875 24 0 74.60822606302443 69.27828523158458 65.87086287775561 0 -3 0
994 644 24 0 77.92435384441617 66.56319495964561 71.85620745741562 0 -3 -1
2492 2142 24 0 73.3961637906869 68.46616424297069 71.12017322291368 0 -3 0
2469 2119 24 0 74.86838919642098 64.87297003701407 68.19672051543088 0 -3 0
2408 2058 24 0 83.16230919399916 1.7862251655362664 0.9254341482877624 0 -4 1
3035 2685 24 0 87.38646554047705 5.573693958822374 2.8429374955019884 0 -7 1
3875 0 24 0 92.06985372295968 4.316683875120414 3.5652865662287616 0 -8 0
1702 1352 24 0 91.85096849256853 0.3680777731727627 0.7752477483377499 0 -7 0
5146 0 24 0 88.98462427226913 0.9311634092729928 5.101005020269049 0 -2 0
3876 0 24 0 94.61223712522965 6.546166745721237 0.03738896421482046 0 -9 1
4867 0 24 0 96.94433558933716 4.154148327433331 4.126857118181495 0 -8 0
5951 0 24 0 102.24189277348478 6.588212322944289 6.407689264767036 0 0 0
5213 0 24 0 102.60794575231664 2.3106535760251106 2.0010686829909723 0 -1 0
5915 0 24 0 99.98267692627375 0.916687122937903 5.973454337978729 0 0 0
6224 0 24 0 106.84479787426909 3.9290037435596092 5.410263280831306 0 0 0
1631 1281 24 0 83.70386446897385 8.56004966593041 3.2225618270715786 0 -3 0
1723 1373 24 0 84.8085983285636 12.844739861088264 5.629147354752615 0 -5 0
1001 651 24 0 80.45662302169862 12.340243345618696 2.1499816866335366 0 -7 0
3871 0 24 0 93.5697703442342 8.511915620237648 5.939008190369604 0 -8 0
3203 2853 24 0 88.53380224067392 10.894030344875583 1.5871024367505195 0 -7 1
5106 0 24 0 93.38501980647996 13.833149894416328 2.561606760519652 0 -3 0
1505 1155 24 0 89.29515368392444 11.466748523947235 6.291318378482815 0 -7 0
843 493 24 0 98.06276548590849 10.071497105016611 3.0708663276457187 0 -8 0
3834 0 24 0 103.10455756576964 11.272575197803032 3.7976519872813985 0 -8 0
4485 0 24 0 102.42535417801976 7.276544541208615 1.2300634693584338 0 -9 0
5927 0 24 0 107.61365346466513 9.00964208932157 2.0278031320680014 0 0 0
5284 0 24 0 108.65432314853417 13.493858000721143 4.71996610383639 0 0 0
6042 0 24 0 106.58470741990868 9.745899709454642 7.128986550551594 0 0 0
5218 0 24 0 85.16222339099794 14.827583275915265 1.116682025162929 0 -1 0
1777 1427 24 0 86.7768904699566 20.128892959095012 3.8844407379950128 0 -6 0
3058 2708 24 0 82.72024784992333 20.44709774129768 0.6682518603456213 0 -3 1
1509 1159 24 0 81.32115691596547 16.024409726998844 5.782880407158357 0 -4 0
1078 728 24 0 91.55357784014062 18.613590580542102 1.275277618896889 0 -6 0
1746 1396 24 0 89.42783930370818 16.103164829549794 4.987426296444262 0 -6 0
3669 0 24 0 94.61781995529046 18.089140707121246 5.545932757010685 0 -8 0
5186 0 24 0 98.99480036092531 15.19357814661429 4.029465139633966 0 -2 0
5645 0 24 0 103.4277728972648 17.007935210645186 2.371744889937882 0 0 1
4869 0 24 0 99.6903352416978 19.62784287728653 6.804216369778321 0 -9 0
6172 0 24 0 108.08537844551654 19.062940919008316 1.8317099854147791 0 0 1
5826 0 24 0 109.39953561098167 19.385614127671904 7.12013402408974 0 0 0
1622 1272 24 0 83.36172084728238 24.681759962181808 3.9006680212696394 0 -5 0
3025 2675 24 0 87.76735076524727 24.427725272807223 1.50190974466353 0 -6 1
5157 0 24 0 84.99810760410736 28.203010328001987 0.20909749760580085 0 -2 0
1016 666 24 0 87.50329356445148 24.085365243760094 6.869246084890752 0 -6 0
2227 1877 24 0 91.95548275549815 23.40721180329686 4.027500319135036 0 -7 1
3003 2653 24 0 94.97603309750437 26.907873684555913 1.370728883618326 0 -7 1
2344 1994 24 0 90.26438993832662 28.27285912313868 4.195015710102803 0 -7 1
4158 0 24 0 96.89541196314242 22.30409039970632 1.5917904005160637 0 -9 1
4237 0 24 0 102.0924221076756 21.65878412296068 2.9529958501290303 0 -9 0
4044 0 24 0 100.6680979857956 26.02162915883955 5.267403145177862 0 -9 1
3766 0 24 0 96.29124867772926 26.841082794048642 6.159644388203187 0 -9 0
5247 0 24 0 99.82302365528507 26.50990677007587 0.24022466896028433 0 -1 1
5605 0 24 0 104.48561605929714 27.343217760399064 1.86627122209013 0 0 1
6013 0 24 0 108.13257367840914 24.140274615607243 5.196814585046227 0 0 0
773 423 24 0 85.47816833543591 28.822084816612698 5.384670159282005 0 -6 0
5136 0 24 0 80.46554886824009 29.23175392461973 5.501528053174145 0 -2 0
1090 740 24 0 83.52177585625951 33.50923116745668 4.59129802407378 0 -4 0
815 465 24 0 81.01964072145032 31.065689292098075 1.0482524448147368 0 -4 0
1559 1209 24 0 88.10467530563207 32.54118789401934 6.74979082692476 0 -4 0
5107 0 24 0 94.69402635273478 31.262091544128165 4.2188960109602105 0 -3 1
2423 2073 24 0 90.24379104054995 32.66715349628292 1.3056412167845393 0 -7 1
5713 0 24 0 99.14890910409227 31.228771736434048 2.387783066226909 0 0 1
3350 0 24 0 102.91355820032108 30.982822503906235 6.681992695122101 0 -9 1
4949 0 24 0 97.13069390378288 35.54873670048302 5.462177185751554 0 -5 0
3939 0 24 0 104.51129975779553 32.40940701437101 1.1707722612676918 0 -9 0
5467 0 24 0 107.39719923486358 33.930611152290254 5.274670339996172 0 0 0
6163 0 24 0 108.95821809826693 29.603836334113492 2.6894646693046647 0 0 1
5998 0 24 0 112.78996186137628 33.87456298661152 5.127501033532592 0 0 0
5445 0 24 0 113.210380307834 30.80436185097609 0.6173988367345067 0 0 1
938 588 24 0 85.65741098662257 3.50179642603934 7.519770604434819 0 -4 0
1003 653 24 0 80.6541836654036 6.7837097941905125 8.0483347429308 0 -2 0
1792 1442 24 0 81.50366123908705 2.0714018067408952 10.086716798041385 0 -3 0
1043 693 24 0 81.59265417427582 6.648844111791876 12.670403846986815 0 -4 0
4544 0 24 0 87.66792808402687 4.7371532718043206 11.975351311154741 0 -7 0
5090 0 24 0 89.69100386273578 5.9218927602490075 7.217873150357467 0 -3 0
1551 1201 24 0 93.70183337057213 5.9833451159988265 10.525725386036184 0 -7 0
785 435 24 0 91.64991539126936 1.5457178324294074 9.292616192455368 0 -7 0
1624 1274 24 0 99.1395442281011 1.2138416479994458 13.562597424765809 0 -8 0
3546 0 24 0 97.14992535431314 2.8914726882862802 9.276160988069154 0 -8 0
4959 0 24 0 98.33880052996169 6.327650541259974 12.54563422563054 0 -5 0
6221 0 24 0 110.65588265359526 6.820806718014065 7.430843509655616 0 0 1
937 587 24 0 104.68056084184406 0.5767952843031141 13.958814430440428 0 -8 0
5941 0 24 0 104.50908983244437 3.500135318441255 10.010398926536817 0 0 0
5712 0 24 0 109.4589837581482 3.1889231158737648 11.718922891037579 0 0 0
826 476 24 0 85.11573846492658 8.44733777999601 8.050073775523076 0 -7 0
1716 1366 24 0 85.92302179569737 8.906946314213261 13.458848630763079 0 -6 0
2224 1874 24 0 81.65023336205986 11.87830523114881 12.016886224678325 0 -3 1
4811 0 24 0 86.83719999417893 13.115088758701829 10.815776412710619 0 -7 0
1799 1449 24 0 80.02482543092752 11.49182277148986 7.382843705237162 0 -4 0
789 439 24 0 91.46171926695341 10.543744497025843 11.073098051442503 0 -7 0
1701 1351 24 0 95.63301696056656 12.704982448082594 7.473117163116402 0 -7 0
1720 1370 24 0 97.94600743590856 7.693270083606244 7.644945358741794 0 -7 0
775 425 24 0 102.46060499067266 8.320627049223024 10.764996129438085 0 -8 0
1695 1345 24 0 96.27876975745485 10.69710574904168 13.066802017395023 0 -7 0
5987 0 24 0 100.7311735655879 12.336947434654713 8.050381982024055 0 0 0
3950 0 24 0 100.34405484449469 13.495071302855138 13.152757644026225 0 -8 0
6250 0 24 0 107.81674883909618 7.862720086018261 11.469509611407107 0 0 0
5304 0 24 0 105.12893201834996 12.737860178219082 11.067520085686832 0 0 0
5016 0 24 0 83.15383655986835 21.08852631606054 7.2486897688189025 0 -4 0
999 649 24 0 85.94528205941224 17.38901390752337 8.437754486575868 0 -5 0
953 603 24 0 81.41960472607144 17.256234683368277 11.256612525835289 0 -4 0
5078 0 24 0 85.17489689131256 20.89203485021759 12.007188470760038 0 -3 0
1585 1235 24 0 91.592722922806 14.846688611169895 9.072974500721056 0 -7 0
1675 1325 24 0 93.53220869653858 14.75781179509489 14.16015712700729 0 -6 0
1575 1225 24 0 88.85461170448939 17.096051581868906 13.061723111953272 0 -6 0
970 620 24 0 90.10157792511333 19.917727714766855 7.982737065901748 0 -7 0
1813 1463 24 0 92.79840954520184 20.154791032546473 13.252560076406391 0 -6 0
981 631 24 0 96.47053422407895 16.63356584560355 10.57235835942666 0 -7 0
4756 0 24 0 101.07433770518652 19.057319772757292 11.912829522655347 0 -8 0
1692 1342 24 0 96.25186952119473 21.341842080668194 9.839004186737611 0 -7 0
6105 0 24 0 109.49335790573951 15.128234159012784 9.588670282610893 0 0 0
5592 0 24 0 104.58521109073733 16.260467406299608 7.3735739821985105 0 0 0
5424 0 24 0 106.25381018566421 18.91095595817858 11.36116988446929 0 0 0
6236 0 24 0 110.75656887810395 19.85147710588653 13.434970905112795 0 0 0
5104 0 24 0 83.3335455467197 26.08344230262373 8.59800866279014 0 -3 0
1741 1391 24 0 84.16375563150982 25.15732914244913 13.959219848090562 0 -4 0
863 513 24 0 87.59048390895265 27.41335560173777 10.598061770289746 0 -6 0
1536 1186 24 0 80.13230699998707 22.498257133005836 12.082688158863935 0 -4 0
5050 0 24 0 89.39871358511692 23.391546886153794 13.225158431190529 0 -4 0
5075 0 24 0 92.43069141822448 24.0006389503256 9.025486119500062 0 -4 0
947 597 24 0 91.74523042559419 27.940142730889182 14.015938669161292 0 -7 0
5631 0 24 0 103.98490826452321 22.143051639209034 7.652498081731326 0 0 0
3654 0 24 0 100.19704134261515 24.197826057235023 10.207105138614315 0 -9 0
1004 654 24 0 96.20654983585335 26.538206741609542 11.728921445255486 0 -7 0
5024 0 24 0 103.99063259610583 23.634688176615242 13.38230895500544 0 -4 0
4683 0 24 0 108.89249979358951 23.649888910448833 11.200056998980642 0 -9 0
5619 0 24 0 108.02535219230286 28.329830311842613 13.130093802400799 0 0 0
5400 0 24 0 104.62102354188264 26.54245088599973 9.077883317712613 0 0 0
1683 1333 24 0 84.79694885642884 33.653846522209804 13.459349036697104 0 -4 0
1789 1439 24 0 83.95692678226958 31.837010514285424 9.19215462293994 0 -4 0
825 475 24 0 92.37657241584125 29.051140278661453 8.513409943298809 0 -7 0
1503 1153 24 0 92.68690855621811 34.41784245496157 7.923579115983095 0 -7 0
1635 1285 24 0 89.34662914455039 32.08296406519292 11.377879261216915 0 -6 0
985 635 24 0 94.43263655925753 31.571137831737104 12.325247219522355 0 -6 0
5100 0 24 0 90.13778194262288 35.939006817739426 13.501382573094796 0 -3 0
1015 665 24 0 97.72611346941702 31.30012794349051 8.296414765515857 0 -8 0
4292 0 24 0 101.63860394964566 29.200385859854006 12.13215639577936 0 -9 0
3548 0 24 0 102.4605563710559 35.840066417267714 12.797500324052457 0 -9 0
4099 0 24 0 109.02759313938606 28.891275804772967 7.641651859325095 0 -9 0
4602 0 24 0 106.3076624239529 32.59331437680974 10.279902355175254 0 -9 0
5928 0 24 0 110.62353474234298 35.78373940224538 9.230171506233319 0 0 0
6243 0 24 0 112.8867552764439 32.751063210070114 13.286165380713804 0 0 0
800 450 24 0 81.01241555870806 0.715043416996453 20.077727933900977 0 -2 0
1778 1428 24 0 84.23339649171537 3.108429871310453 15.5689108858344 0 -6 0
829 479 24 0 82.01014292453824 5.8050788222410485 18.72531425513503 0 -7 0
3943 0 24 0 87.7250606579275 6.334988499972964 17.09788957150345 0 -8 0
3849 0 24 0 91.24978445616281 4.0975015174713265 15.09499013350762 0 -8 0
4519 0 24 0 88.12251884459398 2.1360951013107092 19.38840019708375 0 -8 0
3345 0 24 0 94.52963578990759 3.0072417045034134 18.28838751518122 0 -8 0
5149 0 24 0 99.42625035415915 4.196872800229766 17.61910349269626 0 -2 0
4660 0 24 0 104.40203611602342 5.513625228044301 14.48239086794382 0 -8 0
6193 0 24 0 109.67065680818382 6.656984605604613 16.566252020354003 0 0 0
5328 0 24 0 106.49548833038435 2.3381404622925728 18.158036801791837 0 0 0
1694 1344 24 0 83.91473474170701 10.993832698726774 17.499940570952894 0 -6 0
1685 1335 24 0 87.98511008216283 9.945472101114575 20.93186104330196 0 -7 0
4387 0 24 0 92.53495709579654 9.121150531099023 15.957653943004896 0 -8 0
1646 1296 24 0 92.45749358806412 12.71367971922898 19.92461216809082 0 -7 0
1056 706 24 0 89.36455325154236 12.442406766004293 15.441223261935292 0 -7 0
803 453 24 0 96.33040629085293 8.508875260710573 19.413970108236075 0 -8 0
4413 0 24 0 101.41815731885205 9.387223618994376 15.499091180602093 0 -8 0
5103 0 24 0 97.17301654867066 13.189333412817126 17.643577257710433 0 -3 0
1501 1151 24 0 102.85584506170082 12.618729755510524 19.090929161307873 0 -8 0
5307 0 24 0 105.1594649785552 7.985272711031345 19.218480996255934 0 0 0
5621 0 24 0 107.33153980002913 10.910994676719481 15.781803705101552 0 0 0
5984 0 24 0 111.74331660360075 11.16090451428662 18.17662720429455 0 0 0
1588 1238 24 0 86.74528705292774 14.774663310878912 18.6439790310062 0 -6 0
796 446 24 0 84.42161602399383 15.43946948502206 14.478720096339265 0 -7 0
783 433 24 0 82.75150076364974 17.276211406848162 20.409591984905713 0 -4 0
1574 1224 24 0 82.51552571876444 19.958144003127085 16.09700402628151 0 -4 0
753 403 24 0 87.22636375285849 20.24647483364222 17.25921851026364 0 -7 0
963 613 24 0 91.51352023719429 17.61874087589039 17.824262968760255 0 -7 0
1796 1446 24 0 96.4106333684647 18.462199342682347 15.942110533494617 0 -8 0
5726 0 24 0 100.57649142687404 16.81758402169167 18.729575575988108 0 0 0
1557 1207 24 0 103.42885564433463 20.210034478566634 16.90842123907734 0 -7 0
6157 0 24 0 110.31315027318935 15.048464629802675 14.664147205661372 0 0 0
6175 0 24 0 104.99525083396423 15.76457330868294 14.882031406475381 0 0 0
5958 0 24 0 106.97149090412061 17.34545852926615 19.29223747893549 0 0 0
5059 0 24 0 104.24062245474678 20.4944012673064 21.492652466986907 0 -4 0
6164 0 24 0 111.7675362775562 17.369522507708744 21.22564130251846 0 0 0
5154 0 24 0 83.50416503174759 22.274937172681458 20.946769942107366 0 -2 0
756 406 24 0 83.40988981519932 27.24420831551581 18.48544511759802 0 -4 0
4588 0 24 0 93.47845090239225 21.61227807330557 20.017148649878607 0 -8 0
820 470 24 0 88.08143457342457 25.306014432743506 17.89654774682273 0 -6 0
1597 1247 24 0 94.41792659218908 24.359432878429264 16.12804755995105 0 -7 0
5178 0 24 0 92.40550388392472 27.342143559450445 19.681499497400644 0 -2 0
977 627 24 0 99.21986535917567 21.740332708450186 19.270213247780966 0 -6 0
5314 0 24 0 98.94367312656665 22.662111891674606 14.471116919993497 0 0 0
986 636 24 0 97.58269546152266 26.659744140172396 21.022339898841604 0 -6 0
1733 1383 24 0 99.77945108067236 26.976507994733016 16.648788072140945 0 -7 0
1814 1464 24 0 103.66308615201902 24.831079513899557 18.4315749325663 0 -6 0
5622 0 24 0 108.52740819945791 23.19377194401946 16.628526658972945 0 0 0
6198 0 24 0 111.8477026589542 27.924182526141127 20.98910158040664 0 0 0
4781 0 24 0 106.77763843226221 27.164903966586067 21.24114312165333 0 -9 0
1067 717 24 0 86.74460825646172 29.599379030127714 15.641069836313195 0 -6 0
1605 1255 24 0 80.81703455241534 30.15802695341807 14.429757983087248 0 -4 0
1815 1465 24 0 82.17403674981573 33.69893117295699 17.7349177451217 0 -1 0
1628 1278 24 0 87.27984995931794 33.76032269994307 20.20926333663724 0 -3 0
1024 674 24 0 87.9606847514781 28.973122463611382 20.780262410744367 0 -4 0
5375 0 24 0 90.79782774683498 31.907618416354463 16.45511746951595 0 0 0
5082 0 24 0 95.68395605124353 31.270838908011452 18.16941033977141 0 -3 0
1545 1195 24 0 102.25546590128182 29.54379362793812 19.930687069740564 0 -6 0
974 624 24 0 98.83627953860702 32.44129351403843 14.751386259460046 0 -7 0
1010 660 24 0 101.83491944464797 35.646412157555496 17.740964075117617 0 -8 0
5999 0 24 0 111.57999700421352 35.92362899967403 19.835300562899445 0 0 0
4104 0 24 0 104.82872705351434 31.93069677560343 15.360741031221997 0 -9 0
4419 0 24 0 108.1656889765895 35.31122672203908 14.947834773710987 0 -9 0
3750 0 24 0 108.13919672414117 31.43051975897655 18.960918361273773 0 -9 0
4932 0 24 0 85.58654570630851 5.313615409292054 22.227328582040442 0 -5 0
1469 1119 24 0 83.98708301821424 1.1965945895751182 24.82497834954982 0 -6 0
1483 1133 24 0 82.95159163633943 6.054417348555722 27.471132237408373 0 -7 0
5396 0 24 0 80.31858430145135 7.162494375984024 23.077991305574262 0 0 0
4416 0 24 0 91.95608928428678 1.0359013022706287 27.707486188103683 0 -8 0
5083 0 24 0 88.12863325735964 6.100484116075838 26.365499568528257 0 -3 0
5096 0 24 0 88.54289320769972 1.7481875096047266 24.063823941710464 0 -3 0
4929 0 24 0 93.57323124268288 2.0596254338981734 23.203707533884703 0 -5 0
5188 0 24 0 103.71291790814172 3.8445126862082333 21.710915187716306 0 -1 0
4122 0 24 0 97.27714501750559 2.285276560368302 27.757706520472954 0 -8 0
5360 0 24 0 101.4591005596929 5.376477173923516 26.303527670905524 0 0 0
3494 0 24 0 96.64180132263903 6.054969612467442 23.845686464361137 0 -8 0
4222 0 24 0 99.50215430770963 1.648869462882126 23.080861879833602 0 -8 0
5957 0 24 0 104.01481539708396 2.381543327515948 28.739351784466095 0 0 0
6005 0 24 0 109.02666048021791 3.2174587697331414 24.741490375305432 0 0 0
998 648 24 0 85.04133673829783 9.911884817665317 25.32677017940294 0 -7 0
4343 0 24 0 81.7980263105131 11.648263779330865 21.873109011036455 0 -7 0
1794 1444 24 0 91.84703511264071 7.205644724328614 22.79325034567299 0 -8 0
5401 0 24 0 93.61406025367836 7.266282100762598 28.032357157877833 0 0 0
1577 1227 24 0 89.82273951120509 10.95396642213789 26.20411399788462 0 -7 0
1586 1236 24 0 94.38375959470395 11.840508254720437 25.17155778189124 0 -7 0
5233 0 24 0 100.85830880502029 8.676067306047699 22.02367197280909 0 -1 0
5295 0 24 0 98.03414612971653 9.380403515668364 27.404835863945507 0 0 0
4446 0 24 0 98.83338468202206 13.557145413014636 22.43790966791608 0 -8 0
5455 0 24 0 103.56833184621452 11.096995173630889 25.659765892888203 0 0 0
6012 0 24 0 107.55857332436565 12.74213398373142 22.029196944562322 0 0 0
5962 0 24 0 110.29030852221399 8.055844400806546 21.699961752050502 0 0 0
771 421 24 0 106.29978029934509 7.205223005695844 24.08131837059218 0 -8 0
5986 0 24 0 111.12713471723596 11.987896315767312 26.83712966388327 0 0 0
841 491 24 0 86.54476906743096 14.868769030104572 24.055118994462912 0 -7 0
895 545 24 0 81.79650802606717 15.64815056205098 25.88576958460976 0 -5 0
1565 1215 24 0 84.92508773989546 19.635857338794057 24.606151214190685 0 -7 0
1600 1250 24 0 80.0605183023483 21.146904590765935 25.13937882421993 0 -4 0
6039 0 24 0 94.43183987033555 16.550012785975348 21.763967366750006 0 0 0
955 605 24 0 95.75952731916212 16.14958913958943 27.472825491633255 0 -7 0
1089 739 24 0 90.54144137336482 16.329900561630627 26.42993052107574 0 -6 0
4935 0 24 0 89.51205416847162 19.29656848154165 21.970503321285076 0 -5 0
5686 0 24 0 94.39507820774965 20.299542955147057 25.033035735834027 0 0 0
1665 1315 24 0 89.45265417215592 21.37944267449695 26.78113337471489 0 -7 0
5306 0 24 0 100.59435436038056 15.077717580364052 27.418297526000853 0 0 0
941 591 24 0 99.15300155822605 18.34514647635693 23.776458125145304 0 -7 0
3401 0 24 0 103.48249045656706 15.581461026154265 23.15317010391647 0 -9 0
5177 0 24 0 103.19931766128559 19.534989662741836 26.71328815735289 0 -2 0
3867 0 24 0 98.60791674432268 20.20261119316735 28.426312357178848 0 -9 0
6043 0 24 0 108.9393557788842 16.90173083129372 25.339611472225354 0 0 0
1502 1152 24 0 82.97870610299069 26.265061932740764 23.52872110415564 0 -6 0
1611 1261 24 0 83.18156756455711 27.92612907857542 27.883780589186753 0 -1 0
1648 1298 24 0 85.03016885997943 23.11245188316755 28.47921868661566 0 -6 0
1093 743 24 0 87.40999289897155 24.096200622460017 23.54486406667423 0 -7 0
5011 0 24 0 88.8192226515086 26.442084943174432 28.20420921150631 0 -4 0
1658 1308 24 0 92.28574803415526 24.817508698488442 24.964060204734135 0 -7 0
5097 0 24 0 100.28219421099635 23.055755530469746 23.757490612355177 0 -4 0
1659 1309 24 0 96.93147732329331 24.4833200352352 26.743376854135068 0 -8 0
5635 0 24 0 100.33776541492509 27.93403492060641 24.795410949145023 0 0 0
5069 0 24 0 102.21757023626517 25.051746286536556 28.593259820010175 0 -4 0
6205 0 24 0 110.18060777808218 22.033465430053006 21.728942989565923 0 0 0
6131 0 24 0 104.96604407792141 23.993778443295405 25.09000754234833 0 0 0
5985 0 24 0 109.10553593799804 26.067777242366947 25.242535198091236 0 0 0
6139 0 24 0 112.2463374031817 22.571724943311803 28.218398379712177 0 0 0
6239 0 24 0 114.7681790301814 24.044281413633296 23.77216658798441 0 0 0
918 568 24 0 83.19299265559475 33.03708007413841 27.20565690294914 0 -5 0
1474 1124 24 0 83.56555656921539 30.76573987257539 22.303723432792037 0 -3 0
1584 1234 24 0 87.25303606154185 30.123262051930272 25.49235864832434 0 -3 0
1747 1397 24 0 91.84420130213908 30.599873865565574 28.265280687071897 0 -5 0
5239 0 24 0 94.22451304794517 29.22557082486984 24.076105063617742 0 -1 0
880 530 24 0 90.81357735537256 35.160972853123404 27.51383699124633 0 -4 0
3499 0 24 0 92.66205575646198 32.98995822915933 21.64552104653867 0 -6 0
1065 715 24 0 95.80217615787856 33.35920285130166 26.937635845930306 0 -6 0
1620 1270 24 0 98.62410304262957 32.42688649192632 22.252192131693807 0 -6 0
5248 0 24 0 101.07340346849139 32.85490702511585 26.899642063006027 0 -1 0
5053 0 24 0 104.66289998270729 29.15480248456733 26.34667006843297 0 -4 0
3777 0 24 0 105.33410239452643 34.05796226227012 27.404060630169553 0 -9 0
6006 0 24 0 111.1690053668129 34.62109720650145 28.719698392747024 0 0 0
4659 0 24 0 104.37005020470889 33.44083704932934 22.81494294194189 0 -9 0
5270 0 24 0 109.20478276849329 31.480206508097645 24.424807370341135 0 -1 0
6251 0 24 0 113.12805620500583 29.327827488323305 27.985917070431782 0 0 0
3135 2785 24 0 83.38722160532454 2.497327700387232 34.59981900945008 0 -5 0
1081 731 24 0 80.84525650160066 2.801948837829654 30.378342842519388 0 -6 0
768 418 24 0 86.00775135134866 3.1721104876319925 30.589459204666543 0 -6 0
2377 2027 24 0 86.96847468224222 6.067583954576522 34.94214781022219 0 -7 0
2397 2047 24 0 82.62405807191426 7.172517245601282 32.256653428370264 0 -6 0
4989 0 24 0 89.67304050128402 0.3987646966330467 33.68890732897533 0 -4 0
2468 2118 24 0 95.0203231081676 6.239403355964693 35.241640867861165 0 -7 0
4724 0 24 0 94.118273269544 1.8276441541375932 32.15954314510868 0 -8 0
1489 1139 24 0 90.60321717347546 5.1359573606380735 31.25274715744648 0 -7 0
3971 0 24 0 97.64064245263434 1.8346403805231561 35.41192900531524 0 -8 0
4974 0 24 0 101.43396580338502 0.7660315400551397 32.26997880528806 0 -5 0
3780 0 24 0 99.0946240161367 5.057887910230439 30.971448217495173 0 -9 0
5543 0 24 0 110.86195998610111 6.40694514688694 29.16415515102568 0 0 0
5816 0 24 0 105.41196140762727 7.113360393199951 29.74536264508916 0 0 0
5337 0 24 0 106.70665186649605 3.110949851431836 32.73107171105913 0 0 0
1517 1167 24 0 85.80017747294548 13.638351366749653 29.134415055013662 0 -6 0
746 396 24 0 81.65168180643796 11.235721126873258 29.173763827988086 0 -5 0
5134 0 24 0 85.59244167214123 11.176705052636382 35.281954229000505 0 -3 0
2284 1934 24 0 87.32795432836602 9.205443742064531 30.08091617740541 0 -7 0
936 586 24 0 91.13852866967363 9.03801934901537 33.94002263149625 0 -7 0
4952 0 24 0 89.30479537414399 14.00343703313603 33.150008736285514 0 -5 0
3396 0 24 0 93.67097071433916 11.911668473925712 30.393221802237655 0 -8 0
1018 668 24 0 94.1752135997792 12.90587572402751 35.284059782478145 0 -7 0
6014 0 24 0 101.66381489950328 11.777207642009888 35.41334379686636 0 0 0
856 506 24 0 97.99484925579493 9.634682146478754 32.948196711105545 0 -8 0
3534 0 24 0 102.10934615227715 11.00029552414859 30.583595731908517 0 -9 0
6026 0 24 0 105.39379034809225 7.558943318035171 34.889806781903395 0 0 0
6119 0 24 0 110.4192394002169 8.50529719864451 34.01298177531237 0 0 0
5961 0 24 0 106.55035419625155 12.577202453234896 29.427222218561855 0 0 0
5637 0 24 0 106.46532087725546 12.327713561349388 34.25817579053068 0 0 0
896 546 24 0 81.94591409347161 14.700660301068911 33.17466024557078 0 -4 0
745 395 24 0 84.51445877986016 19.163839385961115 33.779620250385875 0 -2 0
852 502 24 0 83.29173929225001 18.688890170560747 29.06141653973997 0 -4 0
935 585 24 0 90.41981205665962 19.50646443004033 34.91536746416771 0 -7 0
813 463 24 0 88.45745350193796 18.167761719793244 30.378691006221008 0 -5 0
1670 1320 24 0 93.21189365512278 16.559754627641286 31.6741848460908 0 -7 0
1579 1229 24 0 93.81001987463078 21.053220916326822 29.909895499396605 0 -6 0
3398 0 24 0 97.57607195332636 14.575951720422538 32.00169823818446 0 -9 0
3389 0 24 0 102.15090849201464 16.120834816927186 33.01112007485184 0 -9 0
4096 0 24 0 97.61972683083901 19.473867774634083 33.51737759629166 0 -9 0
5282 0 24 0 102.32612808053624 21.01342910404854 31.810917115271817 0 0 0
6204 0 24 0 109.59982167514751 15.870368226085958 32.098812837429655 0 0 0
5990 0 24 0 107.1077959547268 19.923277066161898 33.943520845453975 0 0 0
5269 0 24 0 107.13367726091715 21.165383902701368 28.983718040091762 0 0 0
2383 2033 24 0 81.95573176180754 28.304413215756586 35.27885272393218 0 -1 0
1610 1260 24 0 85.60394573631912 25.99039812468554 33.49176679137955 0 -4 0
1496 1146 24 0 81.78858927762619 23.06215748698192 31.816346026211246 0 -1 0
748 398 24 0 94.12471050789489 23.279449453029937 34.59375150745155 0 -7 0
1498 1148 24 0 93.70157061694677 26.328066405511358 29.747890535006764 0 -5 0
779 429 24 0 89.73303579939267 22.981779705473798 31.563508052208636 0 -7 0
2427 2077 24 0 90.71025493791498 27.57420581087019 33.615865357662756 0 -7 0
3373 0 24 0 98.0868880780727 24.557346799218703 31.426436967769117 0 -7 0
4518 0 24 0 102.94373186671886 25.37760542882267 33.4469555126592 0 -8 0
5084 0 24 0 107.05924282088183 25.972529563704647 29.969472659111478 0 -4 0
6184 0 24 0 107.36685955142886 24.788595739995824 35.49556002014383 0 0 0
6186 0 24 0 110.99047484403636 27.37607235600935 32.09011129021677 0 0 0
940 590 24 0 87.08082859130683 30.312863492222448 30.99125951671568 0 -5 0
824 474 24 0 84.10893257707914 35.6588985357977 35.127204881934134 0 -2 0
1552 1202 24 0 82.56307250755972 32.04066519015739 32.244722345359044 0 -1 0
1776 1426 24 0 86.3736747521069 35.039210811448825 30.568761643468793 0 -4 0
3210 2860 24 0 86.01252694463474 30.753483292327285 35.95385222734697 0 -1 0
1079 729 24 0 90.16446659279453 33.39765406762611 34.468049882315555 0 -2 0
1532 1182 24 0 94.10840580144668 31.024286520850648 32.343297107812624 0 -6 0
1589 1239 24 0 99.22742825131627 33.80141468718119 31.24870967647005 0 -7 0
5266 0 24 0 102.58707145037853 33.0557319448065 35.47755968148048 0 -1 0
1069 719 24 0 103.46583765314104 31.149703603992673 31.20430755337998 0 -7 0
819 469 24 0 97.87247026288826 29.241549306604863 28.97749500643062 0 -7 0
3102 2752 24 0 99.1504731405458 29.490328279020307 33.97561986857965 0 -6 0
5367 0 24 0 97.26927103400901 33.74837551163439 35.47226065531678 0 0 0
4242 0 24 0 106.7261723946549 30.363532529685262 35.14295404840872 0 -9 0
3866 0 24 0 107.53577146058873 35.203362700160525 33.40273275368187 0 -9 0
4805 0 24 0 108.17690600824722 30.66033383847875 29.693044239179113 0 -9 0
6047 0 24 0 114.48690184436087 30.31081965130656 33.240494667350056 0 0 0
2995 2645 24 0 83.71717150921396 5.037536506388314 38.880732630644346 0 -5 0
2279 1929 24 0 87.43985709797079 1.7431771905966431 37.638781772260785 0 -6 0
2954 2604 24 0 86.64173169508554 2.8549727887271725 42.640213785682285 0 -5 0
4243 0 24 0 90.95097011202051 5.391272285674485 37.847120664980324 0 -8 0
3148 2798 24 0 91.86614566289204 3.4641282099721393 42.88310483333138 0 -7 0
4691 0 24 0 92.54316118282942 0.26881201660883486 37.61100140215118 0 -8 0
2353 2003 24 0 96.27050405304621 1.1380344460533904 40.31777597964703 0 -8 0
2280 1930 24 0 101.0812362070485 3.029947874458207 40.504427945136364 0 -8 0
5359 0 24 0 100.35281562401681 6.8480617850321535 36.47332301480122 0 0 0
4230 0 24 0 96.14695987947185 5.992133512267809 40.21509030214811 0 -9 0
6132 0 24 0 105.5952932228904 4.422141756974687 40.072426763644884 0 0 0
6102 0 24 0 110.97686144375947 6.593390036355505 39.14171682116813 0 0 0
4798 0 24 0 104.00343778681432 0.7022002948842512 36.759513298873216 0 -9 0
821 471 24 0 87.82205153829173 7.518281029288887 40.8639596952848 0 -7 0
1735 1385 24 0 81.6858283478344 9.820684925321311 37.523082650746154 0 -4 0
2270 1920 24 0 84.14074475745467 11.278749187127488 41.16877215559172 0 -5 0
3649 0 24 0 92.41592822629171 9.27968852419891 41.706469363205876 0 -8 0
5477 0 24 0 89.37460330574133 11.64003677791174 38.23268440287706 0 0 0
967 617 24 0 93.53497297866029 13.548457483383473 39.8655173271889 0 -7 0
5620 0 24 0 101.90698161952098 8.378351120340204 40.831683784482316 0 0 0
5193 0 24 0 97.37499387978079 10.568730660495588 38.47654371932202 0 -1 0
5458 0 24 0 101.90874743353946 13.406003735141736 41.85202263738567 0 0 0
6156 0 24 0 106.9797564493432 10.27384663105979 39.538494058402314 0 0 0
834 484 24 0 86.893264286879 16.150734063452862 36.780783916610524 0 -4 0
2525 2175 24 0 82.78437007414921 16.544908287693445 39.535992327560976 0 -3 0
1744 1394 24 0 85.67924810172475 20.711259831652054 40.287426082273335 0 -1 0
3145 2795 24 0 80.75866272946521 21.16614510903336 41.43508401177306 0 -1 0
4934 0 24 0 94.10630077515707 17.689741917550318 37.04169263439821 0 -5 0
2205 1855 24 0 88.15428353852856 16.53403012005963 41.41261850697368 0 -4 0
2452 2102 24 0 91.5083761035848 20.99602076681677 40.07759810369873 0 -7 0
5175 0 24 0 95.43296379451436 17.62441868279056 42.82964453678347 0 -2 0
3847 0 24 0 99.1232955804994 15.061580614735247 37.97470750136507 0 -9 0
4966 0 24 0 97.55645637867319 20.892005552450666 38.98001009869955 0 -5 0
3961 0 24 0 101.27902113792615 19.2114729902752 41.90387346758043 0 -9 0
3864 0 24 0 101.7694491263257 19.979434660304985 37.005520784620835 0 -9 0
6240 0 24 0 104.42623494703979 15.374621609913962 37.4408146261027 0 0 0
5582 0 24 0 106.57228124963675 20.209786863292678 38.9163354276259 0 0 0
6189 0 24 0 109.12504482508585 18.43738679373579 42.458431158809695 0 0 0
6136 0 24 0 109.26115861775966 15.880046706579588 37.301478235873674 0 0 0
1655 1305 24 0 82.93019380769034 22.96224689534907 36.968312281099465 0 -1 0
2914 2564 24 0 85.64868840730131 26.45503176286277 38.92621901756924 0 -1 0
3005 2655 24 0 84.03768669955696 24.329791665273753 43.18470016199028 0 -2 0
2759 2409 24 0 80.25953921864759 26.53766366327312 40.533648077616164 0 0 0
2286 1936 24 0 89.48657705462651 23.928091481406344 36.57122473634919 0 -6 0
4718 0 24 0 94.5161889830838 25.050811456896685 39.44902279048072 0 -8 0
3167 2817 24 0 89.64291561213115 25.388030885069107 42.03712393698426 0 -5 0
1544 1194 24 0 94.91038128190189 28.71580227950138 36.37721116275557 0 -5 0
3237 2887 24 0 93.60974009771606 28.453008571411317 42.748128207479056 0 -5 0
5031 0 24 0 99.00093083399602 24.837407526744396 36.56993449394763 0 -4 0
2303 1953 24 0 98.34059676387159 28.76112109013218 40.24722565913791 0 -7 0
4481 0 24 0 103.82676662885179 24.178015146879428 39.03719422183045 0 -9 0
5884 0 24 0 103.72836109079886 28.034516719871903 42.30577302399467 0 0 0
4488 0 24 0 100.11769354885583 24.681408651082837 42.61510272685737 0 -8 0
6020 0 24 0 109.64096679763755 26.82952541470321 39.63762818796733 0 0 0
5289 0 24 0 107.67390905248496 22.76998761728432 42.62882836352212 0 0 0
2628 2278 24 0 82.81379234254933 30.877998426216113 40.36872722519414 0 0 0
155 1 11 0 81.38397225289141 32.72947091075556 36.76753080545683 0 0 0
1811 1461 24 0 87.42288396617084 29.74230927412227 42.55950558771327 0 -4 0
2955 2605 24 0 83.27709573513889 35.849128582453105 40.59300665065262 0 -3 0
153 1 11 0 80.49382650843165 33.97988323721402 37.539783091437 0 0 0
5163 0 24 0 90.32828603366646 29.04185401576399 38.42275216192245 0 -2 0
4856 0 24 0 89.21248921109763 33.958745815911286 39.95833610645817 0 -7 0
1805 1455 24 0 94.074190792106 32.55019513374666 39.52697602149372 0 -5 0
4508 0 24 0 102.86610890857753 28.926572659658717 37.73974054783786 0 -8 0
4298 0 24 0 101.082614993872 33.193491807201816 41.01795322208954 0 -9 0
4631 0 24 0 110.79992332631464 33.094544416059996 37.017192003390676 0 -8 0
5508 0 24 0 106.5479896407383 33.507392849417684 39.27933129569725 0 0 0
6211 0 24 0 110.79414763582284 34.8153390663149 42.41782631239072 0 0 0
6199 0 24 0 107.92074294344489 30.379640972589076 42.933796085761465 0 0 0
2401 2051 24 0 82.14604298114912 1.6923978028416582 44.583085070042124 0 -4 0
5358 0 24 0 83.14134448067475 6.521533226530746 43.71976874156675 0 0 0
3111 2761 24 0 86.023872942004 2.5923982023554837 48.07459451852849 0 -4 0
3130 2780 24 0 81.21002825249252 4.713675993265155 48.099951650592125 0 -1 0
2485 2135 24 0 94.17073938675628 2.608888597311229 46.80406184255028 0 -7 0
3021 2671 24 0 89.10283549868983 6.751628549418283 45.467465728046236 0 -5 0
4651 0 24 0 91.42868997360314 6.112786639796162 50.159098904625786 0 -6 0
5719 0 24 0 98.12692314842549 4.877384297493029 44.78120012461308 0 0 0
5639 0 24 0 100.74495165869047 3.7045561036147334 49.13186531152085 0 0 0
5786 0 24 0 103.0559186334563 5.86101627576727 45.23130412248352 0 0 0
6002 0 24 0 103.6270204124629 0.7416325906163785 44.85910809041076 0 0 0
5881 0 24 0 108.61061580284536 4.031231382574557 44.64047951002757 0 0 0
6253 0 24 0 106.46878288199669 2.483849712868337 49.054015824907175 0 0 0
3074 2724 24 0 80.92251921674739 11.31307161784861 45.73314690871786 0 -5 0
2948 2598 24 0 85.51093961821647 13.25845160290307 46.60112409914077 0 -6 0
3194 2844 24 0 85.01332571758631 8.197681476106006 48.36868580726536 0 -4 0
2493 2143 24 0 94.58638729170801 8.42568687108238 46.70081214239008 0 -7 0
5342 0 24 0 88.87742124797765 12.106793796987915 43.50136215185253 0 0 0
5752 0 24 0 89.70193678613465 10.91670775274081 48.457437599620796 0 0 0
1717 1367 24 0 93.1841175928416 13.866039586075964 45.19623903330979 0 -7 0
3369 0 24 0 97.18383663232285 11.43395522771271 43.638630333650596 0 -9 0
5353 0 24 0 99.42455902987142 8.7564121953194 47.59477842636954 0 0 0
5377 0 24 0 97.10504580329602 12.645489244725253 48.972958471894486 0 0 0
5652 0 24 0 102.52332600041736 12.226197879532506 47.4700576103192 0 0 0
6000 0 24 0 108.17736778096312 10.829389052871981 48.655434846649236 0 0 0
5968 0 24 0 105.26995087005781 9.601435138020092 44.56448984980325 0 0 0
3188 2838 24 0 80.81668982480969 20.79010519177593 46.375128369845484 0 -4 0
2232 1882 24 0 84.15091658250205 17.66418099527244 44.24286154782035 0 -7 0
3249 2899 24 0 85.07128619684062 20.269474319872078 48.24494089754183 0 -5 0
4231 0 24 0 83.20858394716383 15.957032532500365 50.202932777815974 0 -7 0
5795 0 24 0 89.30549283315841 16.756809033860957 46.27090208144887 0 0 0
2405 2055 24 0 92.90797834220388 20.426820093934573 47.596262082558304 0 -6 0
2360 2010 24 0 88.8835376793989 20.96333345144728 44.23251213266702 0 -1 0
4052 0 24 0 92.66834075673263 15.32099272973738 49.91979171967662 0 -8 0
5229 0 24 0 99.39989149465218 16.763504810232934 45.751192419069866 0 -1 0
4450 0 24 0 97.03516709100349 18.450905304112663 50.39207925118864 0 -8 0
5746 0 24 0 105.78600313304679 14.834072096002837 44.6618679396433 0 0 0
5441 0 24 0 104.84431747130019 16.938698361731706 49.26932445204093 0 0 0
4985 0 24 0 104.13629772026404 20.634778710483438 46.035176481236064 0 -5 0
3116 2766 24 0 86.06565249391359 25.642010180382602 47.44806668784032 0 -5 0
2721 2371 24 0 82.56091658451601 28.54936900722416 44.64647189393767 0 0 0
2454 2104 24 0 81.56210452897444 25.39646565292019 48.860104303575305 0 -5 0
2419 2069 24 0 91.49250411073461 25.400869719080514 47.227896097938626 0 -5 0
2195 1845 24 0 95.24649949527736 23.00615500784157 44.00360592821287 0 -7 0
2457 2107 24 0 89.09537360146048 22.324472708785716 50.05925509739725 0 -6 0
5636 0 24 0 99.70282039719675 21.757113665247132 46.48037022199353 0 0 0
5678 0 24 0 96.12323627412678 23.331581717267465 49.8137831264129 0 0 0
4277 0 24 0 97.5499156429046 27.320256525258877 46.168815406870095 0 -8 0
4636 0 24 0 103.0283869129731 26.22350744919906 47.21383201800382 0 -8 0
6252 0 24 0 108.00350084340504 23.39322066290886 47.52977862296614 0 0 0
2327 1977 24 0 110.59692555839652 27.570511205904488 46.55989663385143 0 -7 0
2925 2575 24 0 81.98989683013039 34.231089525097886 49.8427402938443 0 -2 0
3217 2867 24 0 85.36474563001205 33.248458973949774 45.21377939625007 0 -4 0
3042 2692 24 0 80.636922022982 33.521442820922196 44.9586856877685 0 -1 0
2340 1990 24 0 83.91865640421253 29.557877699291506 50.23173674952921 0 -4 0
2290 1940 24 0 91.5825953864375 32.735566778288664 44.840664498590236 0 -5 0
3118 2768 24 0 88.75507429280599 29.642701748461686 47.39373848474084 0 -3 0
3171 2821 24 0 94.04613173513003 30.73473225847464 48.406225156805384 0 -5 0
1088 738 24 0 90.60222926089789 33.89274782267168 49.674729215037914 0 -4 0
3661 0 24 0 101.58073497956588 30.71629167194229 45.65170551525157 0 -9 0
2305 1955 24 0 98.37795883064935 33.43571456246915 49.38101977493992 0 -5 0
3018 2668 24 0 97.04807905401807 32.34821769079072 44.64261092035904 0 -6 0
4487 0 24 0 103.86861260957438 34.595814326477004 49.7996342499473 0 -9 0
5148 0 24 0 106.31162337560652 30.44459825043692 48.261599031637296 0 -3 0
5910 0 24 0 110.67463443876595 32.61717218074023 47.60044905393475 0 0 0
3501 0 24 0 105.18079080629971 34.21372414793238 44.73269535343746 0 -8 0
2314 1964 24 0 83.94319995814814 1.79577504033026 55.89834835597634 0 -5 0
2308 1958 24 0 82.6815578355022 6.1252988657405 52.9632902255633 0 -6 0
3234 2884 24 0 87.82194461616567 3.970144459113377 53.02327815807033 0 -6 0
2467 2117 24 0 91.14744534918297 1.3603277528619442 50.64513192565632 0 -7 0
2389 2039 24 0 93.22997232096276 4.032793034325207 54.88601623118657 0 -8 0
2319 1969 24 0 88.79721000930938 0.31309218891149426 56.24409681789243 0 -7 0
3537 0 24 0 100.4610322260869 0.2369649527214016 54.81881939894358 0 -8 0
3958 0 24 0 96.48256272848302 6.2740486187492195 50.85268087324406 0 -8 0
2526 2176 24 0 99.10200498180059 5.168932627245982 54.61876647226149 0 -8 0
4928 0 24 0 96.32548417876531 1.397023258901513 51.84752041885096 0 -5 0
5604 0 24 0 104.26699423180177 3.3878988596934168 53.576981205984225 0 0 0
6217 0 24 0 108.84730039153447 6.85933622641252 53.00979683793631 0 0 0
3060 2710 24 0 83.52562041816252 9.386278090737289 56.41319897211593 0 -4 0
5184 0 24 0 82.50932198065347 11.23647437354472 51.293179122280456 0 -1 0
5099 0 24 0 87.44227203554163 12.561407721692316 53.068513615199514 0 -3 0
2463 2113 24 0 83.36708540758819 14.370146294565677 55.570308850286835 0 -4 0
3020 2670 24 0 89.66177693409789 7.937957208748101 55.13553789601485 0 -5 0
4093 0 24 0 95.74576565294454 8.46031474446563 57.05730667019134 0 -7 0
2549 2199 24 0 93.17196778982756 10.748997051823418 52.683217163376945 0 -7 0
5778 0 24 0 103.472476635944 7.6776174014119904 50.909307426846105 0 0 0
2928 2578 24 0 100.76396754966932 8.658673140953791 57.309186471980745 0 -8 0
5785 0 24 0 99.06909258213474 10.648880167241563 53.36434672326006 0 0 0
3406 0 24 0 103.03869744696841 13.253061786563663 57.284349280145356 0 -9 0
5942 0 24 0 105.31908865514573 8.958681384942622 55.820217892045 0 0 0
6245 0 24 0 104.97459099260291 12.409831547054464 52.1954135832779 0 0 0
1634 1284 24 0 84.76356637613902 19.109624398716303 54.08300596537058 0 -4 0
2520 2170 24 0 81.19056072674054 20.777666888480073 51.24320802305837 0 -5 0
5043 0 24 0 90.50039585914897 16.68098757800858 55.809587241884074 0 -4 0
5494 0 24 0 88.62226868646638 17.71801890742108 51.15093933316497 0 0 0
2996 2646 24 0 89.47892927978023 21.552178690206144 55.79293970146787 0 -6 0
3774 0 24 0 93.19484682322354 19.8782872316367 52.82390610579197 0 -7 0
3960 0 24 0 96.19996865576665 14.689178669233169 54.06873941463452 0 -8 0
2438 2088 24 0 100.60063197242454 15.033985237728004 51.62761225228431 0 -8 0
2950 2600 24 0 101.74527305432231 19.882765078279316 52.109590415319566 0 -7 0
3651 0 24 0 99.62836957301909 17.082507812765694 56.57256951440347 0 -9 0
2528 2178 24 0 97.663434327746 21.294548987104204 54.500038815878824 0 -8 0
5664 0 24 0 105.81907564552449 16.81370364841427 54.249534387216784 0 0 0
5497 0 24 0 108.60498825015716 14.728736923998348 57.33402448297655 0 0 0
2296 1946 24 0 85.03504871733416 23.637640482179165 52.49379775599999 0 -7 0
5160 0 24 0 84.48916947793272 28.029421496220316 55.17651617672458 0 -2 0
3181 2831 24 0 81.05246614110493 22.16752729960128 57.145280779586066 0 -4 0
3065 2715 24 0 94.50324213834489 23.826805347419985 57.102702713195136 0 -7 0
3017 2667 24 0 92.73388402046687 24.929398552099332 52.61079328734392 0 -6 0
5407 0 24 0 90.23016049306169 26.69021285081536 56.62977705354682 0 0 0
2442 2092 24 0 88.39624610692424 27.384355400274192 51.79280929363864 0 -6 0
3737 0 24 0 102.5072372578444 22.6687524458172 55.89678242377302 0 -8 0
3532 0 24 0 100.996178758976 24.572121243574077 51.54781076888435 0 -9 0
2328 1978 24 0 96.11691858076685 28.121749132618852 56.25775503208329 0 -5 0
5145 0 24 0 97.11356363356154 27.767289723645227 51.089885933449864 0 -3 0
5105 0 24 0 101.0434016841643 27.904941330493067 55.48432922126713 0 -3 0
5953 0 24 0 106.22572898076456 21.990936921092 51.86445011833418 0 0 0
5798 0 24 0 107.08134041874894 22.018808677135635 57.58123712216944 0 0 0
5352 0 24 0 106.1556517554063 26.723935025610714 52.45466332357037 0 0 0
3218 2868 24 0 105.88403213609355 27.20376731881838 57.381233901572735 0 -7 0
6138 0 24 0 114.07744111826453 27.06534687876223 54.52227952488792 0 0 0
2292 1942 24 0 86.67599499206108 33.05957526145409 53.36491942019496 0 -4 0
3037 2687 24 0 81.07712315919503 31.938012729885447 54.246281075064765 0 -3 0
3085 2735 24 0 84.77903528464003 34.83494674787025 57.41957769582719 0 -6 0
2275 1925 24 0 92.30099626005132 35.371981537076955 55.838319560439906 0 -6 0
3177 2827 24 0 92.28479137393498 30.35744442220206 53.82078722945997 0 -5 0
2426 2076 24 0 102.21186112386967 29.69468531701055 50.75228730105967 0 -7 0
3377 0 24 0 101.0408074883274 32.913346122228624 54.148682621010366 0 -8 0
2959 2609 24 0 96.49839463997026 33.1313263195193 54.09485584328067 0 -6 0
3859 0 24 0 108.22348093903052 34.30293240860664 51.61669283584253 0 -8 0
5765 0 24 0 110.48998729790677 29.682429235917965 57.59305875247722 0 0 0
6162 0 24 0 105.91456037171594 31.223243840348047 54.64182436796306 0 0 0
2976 2626 24 0 110.84014732606376 29.76439413362722 51.55893752312383 0 -7 0
5781 0 24 0 113.53001844794593 32.459479014106826 54.49808163890093 0 0 0
2349 1999 24 0 85.70173318164026 0.21575394184693142 60.21173068247379 0 -5 0
2949 2599 24 0 81.46337251725922 5.2033054510152805 58.62347936494599 0 -2 0
2477 2127 24 0 81.30632731548141 3.5468303857594767 63.67871902322723 0 -4 0
4944 0 24 0 86.6894372162276 5.153637163261758 58.07612866839323 0 -5 0
2460 2110 24 0 86.68720901057284 3.518584257213776 64.00419373104009 0 -6 0
4559 0 24 0 92.33222208377303 6.3225673198237216 59.67213210214163 0 -7 0
4239 0 24 0 91.39154244452057 6.391304696685561 64.58576808065276 0 -7 0
4037 0 24 0 90.05835214900678 2.2539735874700626 60.84997500417192 0 -8 0
5479 0 24 0 101.28564770980513 1.7590291890241196 62.96181199909991 0 0 0
4647 0 24 0 96.36285283947917 3.4873037446116526 59.01624999824097 0 -8 0
4725 0 24 0 96.7096357209534 3.4611299514873957 64.65373087911208 0 -8 0
5153 0 24 0 101.54194786880988 3.5526257763368654 58.57057309808663 0 -2 0
5529 0 24 0 106.25067119030713 0.37899533564191007 63.96610632893848 0 0 0
6201 0 24 0 107.91215215315921 4.709259747897763 58.17548542369167 0 0 0
5568 0 24 0 104.55314710707913 5.265370352939346 62.59030983568221 0 0 0
2424 2074 24 0 82.54519733600975 8.74585836029042 61.55730694493452 0 -4 0
2350 2000 24 0 83.68756635674849 13.845939378686214 61.03215849971109 0 -4 0
2970 2620 24 0 87.91195540007025 11.559056637472422 58.121964978114626 0 -7 0
5183 0 24 0 92.67523075966149 12.766466819764602 57.87989710319726 0 -2 0
2256 1906 24 0 88.19859201260977 12.730386942939287 62.75758172131711 0 -6 0
2509 2159 24 0 93.86266635554242 11.040227388726645 62.18614503573528 0 -7 0
3341 0 24 0 97.72026884897733 7.427872953966157 61.80189561443595 0 -8 0
4671 0 24 0 97.87424474754185 12.530647652660749 58.684760133553915 0 -8 0
6092 0 24 0 102.34101842648225 10.547891781284559 61.84362064635758 0 0 0
3624 0 24 0 98.17252024345879 11.596084388559657 64.78971775679717 0 -9 0
6056 0 24 0 109.97118547407722 8.078473887943462 63.43156245260325 0 0 0
6133 0 24 0 106.90672429217621 9.963278198626 60.28370097803796 0 0 0
6244 0 24 0 111.79148521853048 11.72701609556731 60.71329825326084 0 0 0
2530 2180 24 0 85.31825095846415 18.048220275790065 63.399861319345575 0 -7 0
3019 2669 24 0 86.21929986235831 17.219997253279725 58.369890919678696 0 -5 0
2321 1971 24 0 81.26717467673978 17.849029620666446 59.505472746153075 0 -4 0
2929 2579 24 0 80.82977464781436 21.193057921007146 63.89215856414904 0 -7 0
4582 0 24 0 94.65558358573271 18.750025807787516 58.22937452216365 0 -8 0
3023 2673 24 0 90.36911532648175 16.676383595939498 60.759053861851214 0 -6 0
4541 0 24 0 95.37243581930491 15.766744966536313 62.50725675601379 0 -8 0
2331 1981 24 0 89.65553299381438 21.592956226023016 60.99373693080186 0 -7 0
2218 1868 24 0 93.93081218725312 20.364807587452628 62.461607152265074 0 -7 0
2464 2114 24 0 100.20749777541914 15.57825690418157 61.87651326435557 0 -8 0
2236 1886 24 0 98.93863208280631 20.114158411360663 60.783814931436446 0 -8 0
5524 0 24 0 103.80495860378214 18.130671467956187 58.53506689425389 0 0 0
6045 0 24 0 105.61831461479036 15.345702165590977 62.05041390138038 0 0 0
5794 0 24 0 109.97354689959562 18.44267076705372 60.697797525214966 0 0 0
3741 0 24 0 105.8657200188442 20.058411460042567 63.33451897210249 0 -9 0
3032 2682 24 0 85.74392333114348 24.43510835824314 58.659400789672965 0 -6 0
5132 0 24 0 85.99236195786496 22.975251847333684 63.590191073320845 0 -3 0
2283 1933 24 0 92.93679496009244 25.40536279508163 61.334036856947215 0 -8 0
5215 0 24 0 88.39546818169033 27.49084942558927 61.741439020370656 0 -1 0
4961 0 24 0 98.94566850741758 25.026106421706267 59.08572833040606 0 -5 0
5642 0 24 0 103.52209980505805 24.625891153731413 61.019212078134785 0 0 0
5098 0 24 0 97.41464223546046 24.00518327862337 63.44782504090468 0 -4 0
2211 1861 24 0 107.03632964503124 27.86425972261171 62.60698901566226 0 -8 0
2433 2083 24 0 82.42160209838865 35.68217999728884 64.14884875528911 0 -6 0
3098 2748 24 0 80.56173195440127 32.694186412654275 59.9950148370438 0 -5 0
2400 2050 24 0 83.72447260430316 28.97656243528282 60.1907729556319 0 -7 0
4615 0 24 0 87.45986917491199 30.975735933165957 57.737802405226255 0 -6 0
2287 1937 24 0 87.24618617281118 32.117255572234214 63.22168931628025 0 -7 0
5201 0 24 0 94.99444012352822 35.482035560489415 61.333513170440824 0 -2 0
2998 2648 24 0 93.15998105207923 31.05771981827641 60.45963833817147 0 -7 0
5071 0 24 0 89.51099672634241 34.65460593701528 59.800169812257856 0 -3 0
5170 0 24 0 91.08069403305784 35.606256001331296 64.35722616614204 0 -2 0
3650 0 24 0 98.0826224906329 29.07730159223567 62.33510355905076 0 -7 0
2310 1960 24 0 102.58944305623646 30.4162078980819 59.24807594869682 0 -8 0
2336 1986 24 0 98.17513903714134 32.63440637207275 58.67976253629422 0 -6 0
3256 2906 24 0 99.965072335111 33.97344840205081 63.33603473371872 0 -7 0
6203 0 24 0 109.97566435368336 32.58134172958341 64.13843895685936 0 0 0
3046 2696 24 0 107.44582855455924 32.74713794805663 60.064794716673624 0 -7 0
5886 0 24 0 116.17111495792662 29.09223832373595 59.04740145664626 0 0 0
6220 0 24 0 112.73422296822558 34.52603146420446 60.55655694966033 0 0 0
3150 2800 24 0 83.50527276064237 1.4984184720135196 67.85658641794066 0 -3 0
851 501 24 0 83.31337910138971 7.182245979241676 70.40285656195215 0 -5 -1
971 621 24 0 87.5568553189836 0.6077296095231519 70.57008114584112 0 -6 -1
3838 0 24 0 94.78424725645738 2.860704503565494 69.00228047117731 0 -8 0
5195 0 24 0 90.22532064643254 4.991498389900441 70.26212560144356 0 -1 0
3957 0 24 0 90.71842919232215 1.5675453799927754 66.06732474462429 0 -7 0
4945 0 24 0 99.06153791070899 0.291499441443616 67.88631620666175 0 -5 0
4221 0 24 0 99.3570515358486 4.326027122812679 70.56695741112316 0 -9 -1
4599 0 24 0 100.86256360448553 6.655006136417533 65.59194487896617 0 -8 0
5502 0 24 0 107.54813681130848 4.9272221402490315 71.55150958153824 0 0 -1
5679 0 24 0 104.56243241589746 3.840344426716799 67.72027910783606 0 0 0
6051 0 24 0 111.6404611726251 4.866478747055361 66.7137912403209 0 0 0
6129 0 24 0 112.37479628632836 2.74804510047831 70.92687078098815 0 0 -1
3216 2866 24 0 81.14071971445878 9.749263489500558 65.992106451079 0 -3 0
2259 1909 24 0 86.20442665896434 8.22099019825789 65.46422384307441 0 -6 0
5211 0 24 0 83.16651370922447 12.00390829333382 69.69288945672763 0 -1 0
3972 0 24 0 95.41335137778087 7.713846295296964 66.55797335902493 0 -8 0
2990 2640 24 0 93.90974729614871 11.579272328076321 69.34933918463383 0 -7 0
5481 0 24 0 89.8022963445361 10.116921949760684 67.69300934897264 0 0 0
4957 0 24 0 98.3069543204312 9.511611887104264 69.81266607925602 0 -5 -1
5466 0 24 0 102.92985077717293 10.648404713232035 68.74246583178055 0 0 0
5433 0 24 0 100.10639254416448 13.41815844190054 71.47791979444627 0 0 0
939 589 24 0 106.36802837714399 14.236686182517884 70.15007238468233 0 -7 -1
6130 0 24 0 109.85187976826519 9.007102710555792 69.26216452100176 0 0 -1
5771 0 24 0 106.55936341833511 11.311438054325766 65.48635674627887 0 0 -1
2535 2185 24 0 81.74737292604866 15.115229913097357 65.81843742391062 0 -5 0
2953 2603 24 0 86.60141131339154 15.17027049518514 67.73420104353039 0 -7 0
3110 2760 24 0 83.2900866706888 19.52897555178312 67.93257476462813 0 -7 0
2273 1923 24 0 87.23978872125981 19.754887802999548 70.86006165530678 0 -7 0
2212 1862 24 0 91.31749190526885 14.69144053551201 65.86608579072566 0 -8 0
1555 1205 24 0 90.54221837914587 15.103102785917603 70.617582105166 0 -7 -1
2271 1921 24 0 89.29671039367143 19.59368617163541 66.23207355821256 0 -7 0
1660 1310 24 0 94.02370367691161 19.293264423054218 68.53777063622178 0 -7 -1
5013 0 24 0 97.07571816890902 14.75293120266027 67.9934636390532 0 -4 0
4926 0 24 0 100.29469063743429 19.450628049601868 70.66421246198688 0 -5 -1
2311 1961 24 0 101.84967496488169 15.063476593503996 66.9066307357008 0 -8 0
2534 2184 24 0 97.5685922673152 19.03372804182274 65.55873019433835 0 -7 0
3099 2749 24 0 101.60824560451152 21.27653824352531 65.6000103227226 0 -8 0
3862 0 24 0 96.48848908105545 16.916219158826873 71.99145017883863 0 -8 0
6108 0 24 0 109.61137693864413 15.522891126176406 65.25957634160717 0 0 0
5772 0 24 0 104.97391068044817 18.83176205591843 68.8009716485188 0 0 0
6151 0 24 0 109.40357774429032 20.970387493445692 67.14170070466801 0 0 0
3029 2679 24 0 82.99172421078508 27.173909268381117 65.08696406775822 0 -4 0
2974 2624 24 0 83.33536046395467 24.24526564740514 69.76219429083757 0 -6 0
4278 0 24 0 92.04676805984082 23.206695587448028 71.08241740443343 0 -9 0
3506 0 24 0 91.61938507631861 28.24767378494808 65.84695071749428 0 -8 0
1734 1384 24 0 89.93261135860979 28.335251063706302 70.78219972071822 0 -6 -1
3011 2661 24 0 88.15439109646245 24.073602667129496 68.28105249309128 0 -6 0
3168 2818 24 0 92.61523063481914 23.288800867926653 66.06157047020386 0 -6 0
5034 0 24 0 95.99063933253643 27.66300736254928 68.54578962755768 0 -4 0
4837 0 24 0 97.07546550661746 23.09149344978392 68.7491212656809 0 -9 0
5130 0 24 0 100.82106728895644 25.983785334428934 66.96611372152668 0 -3 0
5911 0 24 0 110.35710870207949 27.784339189147087 65.80470374036193 0 0 0
5499 0 24 0 104.65765364947401 23.53336505268935 70.64949798744954 0 0 0
6015 0 24 0 105.26951994734962 24.598966250461427 65.78945197218458 0 0 0
5223 0 24 0 85.64423760661911 33.01456757057527 71.20987541647811 0 -1 0
2522 2172 24 0 86.30419491439227 29.51557707282825 67.36819525103542 0 -6 0
2514 2164 24 0 82.44464508293183 32.41847594878753 67.69167836791642 0 -5 0
2958 2608 24 0 87.01544542746547 34.98103550243741 66.97715406409989 0 -5 0
1693 1343 24 0 81.38767713793773 35.809154302774616 71.66006887701727 0 -6 -1
5490 0 24 0 95.75743730443294 32.36559813611474 70.63279093119013 0 0 0
2540 2190 24 0 91.30783432050663 32.54370659040252 68.22324767822847 0 -7 0
2394 2044 24 0 95.62148992948822 32.027060323077116 65.47952407743334 0 -8 0
3940 0 24 0 100.0357831375705 31.18843358647537 69.16373216179939 0 -9 0
3121 2771 24 0 102.99298979059631 29.783228841530512 64.92228137282095 0 -7 0
6202 0 24 0 110.46844160676153 34.598885331836726 70.14138617658601 0 0 0
5488 0 24 0 106.0708297345063 35.126007881418126 64.8475060319854 0 0 0
5537 0 24 0 105.80761746463152 29.461102269412976 69.15976639851341 0 0 0
1477 1127 24 0 85.7522590294779 39.65182476567495 5.735910784917802 0 -4 0
1703 1353 24 0 80.59882861982751 38.48577255950808 3.744716485840631 0 -2 0
2977 2627 24 0 86.74827297964248 38.065787449073 0.23282103411937843 0 -6 1
905 555 24 0 93.99199294973764 40.062211592414364 5.3191850988892675 0 -7 0
4963 0 24 0 89.52228966409803 43.0986773971065 3.8702127951730145 0 -4 1
943 593 24 0 94.05680968446126 36.16534743799259 1.1452219976984155 0 -7 0
5169 0 24 0 90.09722595005044 37.33719335138112 4.232461679171793 0 -2 0
738 388 24 0 98.69082311042852 40.5285798343187 4.04899240425683 0 -7 0
4638 0 24 0 102.72989414227226 43.0581737747348 4.632073524369832 0 -9 0
3734 0 24 0 102.80593587351166 36.85276180568345 4.4222303329353 0 -9 1
5267 0 24 0 99.24386507655751 36.04939057548669 0.37226384301395116 0 -1 0
5073 0 24 0 106.84687623720306 40.174279244958676 5.794936734526438 0 -4 0
3543 0 24 0 104.24682793799313 40.96873475540628 0.5017058639459462 0 -9 0
6134 0 24 0 111.67949219369585 41.16759544209282 1.061057841643925 0 0 1
5871 0 24 0 108.17775003596125 37.67387676213694 1.709332195306657 0 0 1
6143 0 24 0 112.20373624313508 38.790374996891074 5.41580242842792 0 0 0
3006 2656 24 0 84.55602642272441 44.33893716576755 5.675927561891358 0 -4 1
1736 1386 24 0 83.25604494684258 47.38227464779824 1.997604421723792 0 -3 0
885 535 24 0 80.9190811746542 47.22176634944314 7.159656153003277 0 -3 0
1468 1118 24 0 87.5802416408948 49.357129463362305 2.906455566616672 0 -6 0
848 498 24 0 86.86956091773752 44.62610256145159 0.11934680256266393 0 -6 0
931 581 24 0 94.41919958498467 44.416200810599804 2.4046484859144206 0 -5 0
1662 1312 24 0 91.46368743683233 47.351046325868936 5.482174831116651 0 -5 0
3842 0 24 0 91.932621587749 48.2901149633965 0.5467069790526159 0 -7 1
5432 0 24 0 95.71420790925886 45.44956793164821 7.178044324436579 0 0 0
830 480 24 0 99.2746297681046 44.816481726232354 0.10384789968196335 0 -8 0
920 570 24 0 100.87384543530464 47.88705433956626 4.077132134240796 0 -6 0
3179 2829 24 0 96.29033057474207 49.72944560763805 2.819225596494665 0 -6 1
5718 0 24 0 103.83683231584995 46.06049856861131 0.3210617394203858 0 0 1
4509 0 24 0 107.99405417419726 43.80865379329601 2.2455316766891205 0 -9 0
6185 0 24 0 111.91937236222535 45.63642525029494 4.750564446888379 0 0 0
4228 0 24 0 106.34275746059959 47.01619648309335 5.686903859061038 0 -9 0
2554 2204 24 0 82.57139697000915 51.5652186068081 4.985756338474233 0 -3 1
897 547 24 0 85.19813385965325 53.5417023456312 1.213113688020542 0 -5 0
1019 669 24 0 84.79786070492354 56.54359410581247 5.896816009112518 0 -4 0
1036 686 24 0 87.81485635084489 52.72236306720098 6.818982543548648 0 -4 0
1721 1371 24 0 91.61805055581328 52.12650296168801 3.733625350417216 0 -6 0
1722 1372 24 0 89.7334680792339 56.71706539383164 2.3544629565391784 0 -3 0
3241 2891 24 0 95.0138571522235 56.63596776053528 2.239775220164315 0 -5 1
1644 1294 24 0 95.15916682387471 55.610927717817106 7.0613682148971355 0 -5 0
6044 0 24 0 99.83987343198994 52.92513945519471 4.15598925991132 0 0 0
5755 0 24 0 103.54356482320803 54.209046596354426 0.01675412773947949 0 0 1
6114 0 24 0 109.87853799596908 50.58327501019369 5.109391114464821 0 0 0
3391 0 24 0 104.77136306504683 50.491579252451956 2.9554423221176798 0 -10 0
5087 0 24 0 104.10478175654589 55.37610464762335 5.159949643363688 0 -4 0
5682 0 24 0 108.34865178030064 53.576817903953625 1.3686261477208101 0 0 1
6106 0 24 0 108.59664082087171 57.31098600459624 5.774987804988582 0 0 0
6125 0 24 0 112.14034041530317 56.750484728791534 2.20117569585839 0 -1 1
2547 2197 24 0 84.07474819741645 58.1895719737488 0.9110261176671176 0 -4 1
1480 1130 24 0 87.30993660331052 60.97105639230387 4.3572668833660275 0 -3 0
1002 652 24 0 93.12520432595909 62.84053633827715 2.402499447313759 0 -6 0
5093 0 24 0 94.48097581629361 60.77686061586255 6.727599962921385 0 -4 0
1567 1217 24 0 100.47523543605926 57.95099642041521 2.307628519356066 0 -7 0
899 549 24 0 97.89832514588056 61.64902940784684 3.052367309937225 0 -8 0
6036 0 24 0 101.4794151075426 64.50387354364466 1.9922157837460794 0 -1 1
5989 0 24 0 103.922507216545 60.77870604448463 5.62576074266259 0 -1 0
3523 0 24 0 99.52388309072059 58.583109067230666 7.1585408148375125 0 -8 0
6161 0 24 0 106.11484436049685 58.289806063905374 1.6712001866673178 0 -1 0
4649 0 24 0 106.45152400330385 63.74899878062155 2.595826539887934 0 -9 0
5745 0 24 0 109.2821613458797 62.8977141519433 6.767468614120001 0 0 0
1607 1257 24 0 85.11474860476878 66.71375095474774 7.171407717143501 0 -3 0
2223 1873 24 0 81.7986099020386 67.44912297436561 3.3143524530742954 0 -5 1
747 397 24 0 86.36961021220718 69.70360666763719 2.46899903244033 0 -5 0
844 494 24 0 83.31121695794599 71.2480222503222 6.147880765993475 0 -3 0
5336 0 24 0 94.14196657406148 66.04187734464801 6.27688938783858 0 -1 0
3073 2723 24 0 88.46155971065133 65.58314398845134 3.07307693864228 0 -5 1
2443 2093 24 0 90.09979726526244 68.59226368729938 7.0254968920610485 0 -7 1
3247 2897 24 0 92.45336794281617 67.75980860100815 0.9608132655477537 0 -6 1
1649 1299 24 0 94.73161788103265 71.84782364742628 5.193453277607069 0 -8 0
4372 0 24 0 96.9874511159661 66.53784540678573 1.5121643085497025 0 -8 1
4565 0 24 0 99.04894776158449 68.25455871923582 5.83393118665683 0 -10 0
6213 0 24 0 102.41325662454088 69.4481545066 2.310787764684182 0 -1 0
5751 0 24 0 103.33575261100448 66.09920245559324 7.119765575571145 0 -1 0
4734 0 24 0 97.75203643533887 71.87279425223879 0.9934708486287143 0 -9 1
6126 0 24 0 107.83516777988747 68.05414178173484 5.869433360188152 0 -1 0
5426 0 24 0 106.89186756409566 71.57705111796587 1.7383231438765574 0 -1 1
6242 0 24 0 104.62536339488302 71.5049317124967 6.811926737769533 0 -1 0
809 459 24 0 87.43360969099237 36.484116589163015 9.420300595439002 0 -4 0
1473 1123 24 0 81.21105388156023 41.62164550336693 8.187563748319556 0 -3 0
910 560 24 0 84.03700895158751 38.617876719853285 12.672800260331668 0 -6 0
1760 1410 24 0 85.85250660957115 42.62310592313671 10.137989859388192 0 -6 0
873 523 24 0 82.33424219092326 36.82226058875162 8.163383232414077 0 -4 0
853 503 24 0 90.30122180047019 42.61275814826324 8.321368056084275 0 -6 0
1070 720 24 0 89.13842718594825 40.76088235052789 13.298154579153167 0 -4 0
1764 1414 24 0 93.88646626486562 42.77192234732288 12.623462214796792 0 -5 0
835 485 24 0 92.44044586229543 38.67280331457353 9.939521339430096 0 -6 0
926 576 24 0 96.74250566776885 36.187263597985705 10.871993472585366 0 -7 0
1008 658 24 0 101.88743272407183 39.648069650815394 8.414990936497652 0 -7 0
5312 0 24 0 97.3526197137916 40.97378527046152 9.961784129368766 0 0 0
973 623 24 0 102.4167629343512 41.980149546425054 12.624956754159083 0 -7 0
5292 0 24 0 108.80916390382345 40.597472055570215 12.775488696883505 0 -1 0
3941 0 24 0 106.28421400549577 37.24780565389938 10.32125607821213 0 -9 0
6088 0 24 0 112.38644321661789 37.910438702958075 14.357154130049713 0 0 0
4545 0 24 0 83.26701500092251 46.61681245401191 11.450920898985574 0 -7 0
1101 751 24 0 86.71647358897486 48.3686389313953 8.260492934784684 0 -3 0
1508 1158 24 0 87.79698138909949 45.5211770966123 13.309817828561926 0 -5 0
871 521 24 0 80.0063258191136 50.36325747383445 13.875295373264013 0 -3 0
840 490 24 0 91.70072008755741 47.067923198115224 10.773251699354892 0 -4 0
1044 694 24 0 95.02162833200309 50.071707904662816 12.451297576214294 0 -5 0
847 497 24 0 100.57025270875656 44.56225608390102 8.621616377386694 0 -7 0
997 647 24 0 97.93626077887731 45.71870742737689 12.414794093281522 0 -7 0
4942 0 24 0 102.61079669471982 47.11398644039057 12.782943474020593 0 -5 0
3223 2873 24 0 98.7699966716444 49.32077287305554 8.58119130949733 0 -6 1
5655 0 24 0 103.22452901074537 49.915941656307766 7.630929060015348 0 0 0
5425 0 24 0 105.88216066142667 44.09894599577691 10.0623712463532 0 0 0
5907 0 24 0 106.93823377315908 49.263323994551726 11.827800166597367 0 0 0
6192 0 24 0 111.34658924157148 46.8186816696063 12.927415583952378 0 0 0
6128 0 24 0 112.61771646559247 43.34733491157375 9.816182969887617 0 0 0
857 507 24 0 87.52479266892367 51.12949839719953 12.179498137383769 0 -3 0
1774 1424 24 0 80.25218380240128 56.34280894734874 8.02298965375707 0 -3 0
1046 696 24 0 83.72463083073382 52.66666324668988 9.688329049754044 0 -3 0
1550 1200 24 0 87.6792021838518 56.34186374798598 13.654799615705825 0 -6 0
1807 1457 24 0 94.17990615398496 50.899992754920426 7.379112676332311 0 -5 0
946 596 24 0 91.59055277336164 53.93284429911842 10.545144595152275 0 -5 0
849 499 24 0 100.37834473071928 51.54987812900352 12.756843694102072 0 -7 0
1668 1318 24 0 99.72735878147343 54.352105526877274 8.817827219904261 0 -7 0
5651 0 24 0 100.54462170696425 56.44016925882639 13.551132205171566 0 0 0
5530 0 24 0 103.90109801954333 57.0022426845771 9.804839664384833 0 0 0
1537 1187 24 0 96.19500038110675 54.713804481524384 12.73890202305975 0 -5 0
5471 0 24 0 106.74260078674897 53.22612643186011 8.213712960327236 0 0 0
1558 1208 24 0 105.96862492198451 53.8039459908524 13.626480613448923 0 -8 0
6004 0 24 0 111.6339683531671 54.53058995585033 9.26816180676322 0 0 0
1793 1443 24 0 81.77670297819253 61.18999698900709 7.524731822179597 0 -3 0
780 430 24 0 83.03593525586588 57.91173326104221 12.213130682454915 0 -5 0
1076 726 24 0 86.40189177555355 60.60748378923821 9.715530856975088 0 -4 0
1596 1246 24 0 82.92388695052148 63.226916114930255 11.832423142502233 0 -3 0
860 510 24 0 90.2932831134216 58.14013134972694 7.488386033966772 0 -6 0
1071 721 24 0 91.4466139795356 59.6252362874982 12.698934895657642 0 -6 0
1671 1321 24 0 90.2492005992378 63.18709190896105 7.2021691065943605 0 -5 0
1573 1223 24 0 93.92621472816964 63.72165369276761 11.427519489272386 0 -6 0
5538 0 24 0 99.03847247134405 63.420291335637025 7.31511944012981 0 -1 0
3641 0 24 0 96.34962643282154 59.485992165197096 10.986378196833337 0 -8 0
4240 0 24 0 100.91186175718656 60.971663550143965 11.88999831140317 0 -10 0
6054 0 24 0 108.93092550211122 59.5987743814943 10.95111338901028 0 0 0
5416 0 24 0 105.157526004361 62.82269122485996 9.962997047002695 0 -1 0
5887 0 24 0 109.50457409569475 63.31799044643485 14.293584571012357 0 0 0
1513 1163 24 0 87.97732984572544 64.97452149959472 11.48836888048608 0 -7 0
1591 1241 24 0 83.29246746097718 67.97114799049785 11.090460592857646 0 -3 0
4698 0 24 0 87.18094545993263 71.25888439713961 9.931814995730997 0 -9 0
1075 725 24 0 91.1723388045822 68.66556969975096 12.2171900362536 0 -8 0
1073 723 24 0 95.74198668391269 69.74695330216063 10.04323798824758 0 -9 0
5089 0 24 0 98.73986529475252 66.04509657452786 11.501368270162734 0 -4 0
4960 0 24 0 100.99007055090807 70.23421352153446 10.118759750131655 0 -6 0
3515 0 24 0 105.01998379069343 67.70662443361725 12.01483595228985 0 -9 0
6246 0 24 0 109.91242411620733 69.31310566428186 13.344677757328627 0 -1 0
890 540 24 0 83.69428992806768 37.17036810703867 20.825860984389916 0 -2 0
1476 1126 24 0 81.48922098099676 38.41611892166348 16.696585203457893 0 -4 0
1548 1198 24 0 83.39833069562569 42.297730420800995 20.825534627709697 0 -1 0
1676 1326 24 0 83.61564817598416 43.00478134222432 15.585407335387636 0 -3 0
837 487 24 0 86.54134212272983 37.680149850357765 17.081854346504535 0 -4 0
3521 0 24 0 91.59236982506147 36.25924855701912 18.317046724075816 0 -7 0
1572 1222 24 0 94.17078263895728 38.44713042393617 14.666314413231339 0 -6 0
1621 1271 24 0 91.5360454992493 41.11259866821011 17.872595426960363 0 -3 0
1598 1248 24 0 88.01225198264399 40.608803832209496 21.434869048853553 0 -3 0
888 538 24 0 95.62750340418103 41.22480674782217 20.995087472425112 0 -6 0
1791 1441 24 0 96.51973714043649 36.75522898545824 18.916041595190716 0 -5 0
5165 0 24 0 98.59236992141389 39.94457012843664 15.411485965476393 0 -3 0
1005 655 24 0 102.17754915589357 40.324818416606945 19.501158555251997 0 -7 0
1524 1174 24 0 105.08649946867163 39.160878783309855 15.756002139251814 0 -9 0
5700 0 24 0 109.24794416842987 40.85861451587168 17.93856791887552 0 0 0
850 500 24 0 106.27617039043655 36.596840357478 19.733181549378703 0 -7 0
6050 0 24 0 113.39785559810281 42.98608949577076 15.025709341285857 0 0 0
1816 1466 24 0 84.70773020543086 48.214777688526475 15.986691006791903 0 -4 0
1583 1233 24 0 83.69668021480163 46.83665960059016 21.47703737325358 0 -4 0
1047 697 24 0 80.45195486475382 46.86819228503469 17.59761860863388 0 -3 0
930 580 24 0 88.02155381319623 45.11811570584989 18.383415045328583 0 -4 0
1054 704 24 0 92.33029681794329 46.27166908098749 15.884237907754361 0 -6 0
1678 1328 24 0 89.30994596443583 49.78166041282944 19.473152045314876 0 -5 0
928 578 24 0 94.01543893185571 50.32032626336823 18.480024340899682 0 -6 0
874 524 24 0 92.14901531630477 45.70326209956314 20.635663972069324 0 -5 0
5150 0 24 0 101.50362705034966 45.26260945535813 17.790069575748014 0 -3 0
5681 0 24 0 96.75347105148504 43.9546211353721 17.278621805397623 0 0 0
968 618 24 0 98.66602274205094 49.496652532906836 16.683270727674074 0 -6 0
772 422 24 0 101.88749102675177 49.77427699728412 20.562576886285736 0 -7 0
1571 1221 24 0 97.80891257505675 47.4420814702184 20.940334873585805 0 -6 0
5422 0 24 0 105.65363467351376 43.83605584911999 20.752452838086718 0 0 0
6060 0 24 0 106.39147537628902 45.02170580804789 15.497153705339024 0 0 0
5934 0 24 0 107.25693584222469 48.966697874842794 19.46258725257524 0 0 0
5406 0 24 0 110.76644432336805 45.768074375705176 19.00243731719572 0 0 0
1619 1269 24 0 83.48833481416713 51.643351651567606 19.5393145830353 0 -4 0
1038 688 24 0 83.52249291687438 53.49666943688948 14.990178174103983 0 -3 0
1599 1249 24 0 87.92155063580624 54.186218109903024 18.81414724818793 0 -3 0
1097 747 24 0 92.53831498211075 55.7138309508667 15.28147716368527 0 -5 0
923 573 24 0 92.90017763052055 54.31981049084775 20.971354631521486 0 -7 0
5147 0 24 0 103.6965573077017 50.5043603311846 16.225324995590494 0 -3 0
951 601 24 0 98.38998661521893 52.91100332008961 20.763278877067837 0 -7 0
5589 0 24 0 101.93370732383752 55.005628208032036 18.263978483159317 0 0 0
5796 0 24 0 111.17497606838732 51.45810029227422 17.658576908232956 0 0 0
6055 0 24 0 106.93959614013627 54.64466428417079 18.651890843253568 0 0 0
1590 1240 24 0 84.46871749999927 58.23066523961928 17.465560564150817 0 -4 0
1492 1142 24 0 82.7435510163871 62.866038375677405 17.27037691068047 0 -2 0
859 509 24 0 87.09411713220128 61.76662180242498 19.79765059514508 0 -6 0
898 548 24 0 87.0142217156327 61.97045941035537 14.969260879519744 0 -4 0
1623 1273 24 0 91.11723498579424 59.94308636930138 17.9133383175075 0 -5 0
1026 676 24 0 91.02437155720325 64.79214001219862 15.454967159731876 0 -5 0
4379 0 24 0 94.83969759065744 63.138746948592136 19.104693176279913 0 -9 0
872 522 24 0 96.64393622275229 58.287701702459266 17.853863273638297 0 -7 0
5470 0 24 0 101.49887233383544 60.09995859587358 17.20901665777169 0 -1 0
5092 0 24 0 97.31203461503826 62.598522918831925 14.887858193980762 0 -4 0
6053 0 24 0 103.87418925188284 64.19587236881353 15.678602319793498 0 -1 0
5995 0 24 0 106.15068127344728 59.04616890362351 15.279280351731447 0 -1 0
6206 0 24 0 109.59211382062507 59.799058126999896 19.045799750528428 0 -1 0
4105 0 24 0 105.28042771429065 62.33680286539648 20.096962525100572 0 -9 0
1564 1214 24 0 86.36228577564039 69.56871208093901 21.2351353645797 0 -5 0
1023 673 24 0 80.0447052325416 66.98490092191454 20.37300788389305 0 -4 0
1677 1327 24 0 86.92115747986222 66.39289370528111 16.327242413651838 0 -5 0
1049 699 24 0 82.67044610261978 70.0048786256502 16.027302891115692 0 -5 0
5162 0 24 0 87.65027869039916 71.78538729352074 15.078029476303668 0 -3 0
4374 0 24 0 94.69041091185699 71.71389722454013 14.473380584203362 0 -9 0
4940 0 24 0 91.69000112555935 70.44579721730507 18.221778792193057 0 -5 0
1546 1196 24 0 89.90654956399656 65.80989071375043 20.410132980073758 0 -6 0
1729 1379 24 0 95.09344696075222 67.9924117304513 20.527307956312644 0 -9 0
4969 0 24 0 99.39264351772799 65.61004329250879 18.683557035465295 0 -5 0
4622 0 24 0 96.03285643941389 67.32381984588937 15.295431766445303 0 -9 0
5680 0 24 0 101.1832172553556 68.40841791185566 14.991549213362063 0 -1 0
5399 0 24 0 97.72902643439105 71.44637518680703 18.231988131427038 0 -1 0
5246 0 24 0 102.51880072180154 71.19634303644611 19.609764308486234 0 -1 0
5969 0 24 0 109.61756853340263 65.57811661356362 18.92948342083986 0 -1 0
3621 0 24 0 104.53446356726097 67.0434199757485 21.346134090599733 0 -10 0
6200 0 24 0 106.72650639876417 69.06963617254027 17.156342941270175 0 -1 0
6215 0 24 0 111.5103811994718 71.99484963516227 17.656008804077523 0 -1 0
1543 1193 24 0 86.87573864513675 36.22160171409433 24.794131581884606 0 -4 0
766 416 24 0 80.92900414152344 41.886078635839525 25.626185632082013 0 -1 0
1566 1216 24 0 85.94876230960395 42.71746911683281 25.091491115444235 0 -3 0
162 1 10 1 82.05545271781175 37.1432144763122 25.08926320743779 0 0 0
1512 1162 24 0 92.62495298540532 38.05982017777745 22.857282054401722 0 -5 0
5421 0 24 0 93.99871416611984 39.28711841241451 27.570863917042505 0 0 0
954 604 24 0 90.8919622504943 42.733312465508234 24.766404306860952 0 -4 0
842 492 24 0 88.23096496155097 39.745688992547905 28.26842758772275 0 -3 0
945 595 24 0 97.85682752477187 41.534985509840396 25.182411828075807 0 -7 0
1761 1411 24 0 101.41124599180539 41.98026495019192 28.09123884945618 0 -7 0
5108 0 24 0 102.76441543050225 37.66276025075107 24.22745504401993 0 -4 0
1077 727 24 0 97.51572458245708 36.73953070454062 23.972500893569677 0 -7 0
5988 0 24 0 107.68810161406493 37.24870686581377 24.4620974220987 0 0 0
5611 0 24 0 105.79523104341831 42.82463982946158 25.78360169093879 0 0 0
5982 0 24 0 110.26030312569029 41.73979983246852 23.121446289227972 0 0 0
6142 0 24 0 112.43691300094308 37.4424293238532 25.044372233162495 0 0 0
761 411 24 0 84.31727343570648 47.41155769752598 27.36005194079555 0 -3 0
1737 1387 24 0 88.47694191945207 47.636922976431734 24.147128599526447 0 -5 0
784 434 24 0 94.96823198600322 45.43903900430772 25.18464702563695 0 -5 0
5151 0 24 0 88.9258984958149 45.626582608809635 28.752441836874834 0 -3 0
988 638 24 0 101.71833923079316 44.20775854018361 23.52419810479087 0 -7 0
1087 737 24 0 99.94220422780238 46.80200758503854 27.26637013588515 0 -7 0
962 612 24 0 104.75789325423543 48.3485004013261 24.77228233381292 0 -8 0
6140 0 24 0 110.11256272664399 46.66269981326651 24.646805887977592 0 0 0
5086 0 24 0 82.22281320308082 50.99541363724258 24.319173812881893 0 -3 0
1017 667 24 0 84.43385272252279 56.44069101953319 22.178932375953035 0 -3 0
1582 1232 24 0 81.85099115885467 55.641781645958424 26.686092950962376 0 -3 0
1009 659 24 0 86.7129092332745 56.332042696512644 27.455730068988544 0 -4 0
1752 1402 24 0 88.13705811866485 51.04021452073329 27.729523186153852 0 -5 0
1554 1204 24 0 92.9518954013929 50.74238014076406 24.14510173486599 0 -8 0
868 518 24 0 88.17692017834109 52.72112957748753 23.37391134403617 0 -4 0
956 606 24 0 91.95513250361385 55.094058745089825 26.283439496339565 0 -7 0
876 526 24 0 97.46375813393024 50.82074358492847 25.354421761158147 0 -8 0
5230 0 24 0 102.573283278355 51.78349340507777 28.171521623055018 0 -1 0
5049 0 24 0 101.58766725020722 53.91223258951323 24.17914704692826 0 -5 0
855 505 24 0 96.81807727863527 55.57743306608878 25.957282462576973 0 -8 0
6041 0 24 0 111.04315452039549 52.52433074559232 24.17722701447715 0 0 0
5398 0 24 0 106.10378393651341 52.36020736063752 22.861051125843964 0 0 0
5750 0 24 0 105.62549928739826 55.523058535467456 26.70877759142632 0 0 0
6176 0 24 0 110.5050645466127 57.52498788026381 24.137465248273962 0 0 0
1637 1287 24 0 83.09729874845823 60.85107413535787 27.515823332808896 0 -2 0
1068 718 24 0 82.50156353786082 61.443782548516694 22.013996486528853 0 -3 0
1082 732 24 0 87.06980524487848 60.65461287674853 24.80701296115316 0 -6 0
1504 1154 24 0 90.09697675731552 57.66670293367884 22.54316852648929 0 -3 0
894 544 24 0 95.13522134376149 59.48599262606176 22.981646157175607 0 -6 0
4863 0 24 0 91.82687278375336 60.450815189216904 26.750406225023948 0 -9 0
832 482 24 0 95.01013299917031 64.71752377332018 24.356111781570583 0 -9 0
4369 0 24 0 99.72478773350429 58.1192525543909 22.140799222654593 0 -9 0
5152 0 24 0 99.3272918292475 63.22734046358332 23.041570386419476 0 -3 0
3865 0 24 0 99.0895292660888 59.96260015455195 26.582610315056257 0 -9 0
5659 0 24 0 104.50380909323215 58.24192118381741 21.688653358046665 0 0 0
5468 0 24 0 104.00114271734411 61.77737597105254 24.876851277980922 0 0 0
5532 0 24 0 108.75026501345056 62.66853605666351 23.893543461372403 0 0 0
6248 0 24 0 113.53554857787168 64.74973844266843 22.45117959983545 0 -1 0
2358 2008 24 0 81.1819768634683 70.44508618598485 28.01719808378865 0 -4 0
1020 670 24 0 85.76249280621532 65.93873188299769 24.012898039990908 0 -6 0
759 409 24 0 87.18224351334767 69.45857010183698 26.90140206652395 0 -8 0
3412 0 24 0 90.09272965080503 65.27747265543336 26.773310271272216 0 -8 0
4422 0 24 0 91.59275197729406 69.13093221662386 23.779903231554286 0 -9 0
5156 0 24 0 98.99672709968148 65.80030472257253 27.842645464691383 0 -3 0
3854 0 24 0 96.0684706108798 69.29513291553131 26.003108862285245 0 -9 0
5779 0 24 0 99.94476571564076 68.29904078209135 23.262565666554085 0 -1 0
6001 0 24 0 100.58332309017267 70.68745473646017 27.916517324047426 0 -1 0
5669 0 24 0 103.76690189545971 71.23098665121891 24.1914268663244 0 -1 0
6249 0 24 0 110.71510264189347 65.58415252926872 27.698882166033517 0 -1 0
5656 0 24 0 104.14416634799099 66.68346810728005 27.20151824589242 0 -1 0
6046 0 24 0 109.6259749250862 68.34980137978131 22.970028998031957 0 -1 0
6137 0 24 0 107.71310395070805 70.98558473440386 27.289119025491587 0 -1 0
1380 1030 24 0 82.56589218469955 38.632208019518885 29.450558670887023 0 0 0
887 537 24 0 83.67681231230688 43.14558267926498 29.87398038281934 0 -2 0
1666 1316 24 0 85.04198800902871 40.26828675835245 33.988827883476986 0 -3 0
169 7 16 36 80.63901650053161 36.00213712135812 33.2199624535591 0 0 0
2471 2121 24 0 94.00419459600647 36.19238243004188 31.909508268330008 0 -4 0
1763 1413 24 0 89.60360739051934 37.76072981394302 33.25395577680319 0 -5 0
858 508 24 0 92.21957643825942 41.8280819526075 31.53799833354421 0 -4 0
861 511 24 0 102.57142454443586 37.22137347175575 31.39060935726724 0 -8 0
5703 0 24 0 96.58126846433582 39.51481577503574 34.37392457205805 0 0 0
5429 0 24 0 96.54087658707617 43.18395951005015 29.470066137588855 0 0 0
864 514 24 0 98.24135636246857 37.72143302482253 28.84284930779024 0 -7 0
818 468 24 0 101.14785119615179 41.580099485489484 33.12414171788238 0 -8 0
5893 0 24 0 108.54502365201601 42.50791613501944 34.568627778497095 0 0 0
5351 0 24 0 107.17158816560081 39.34161513620116 29.495546864042804 0 0 0
6118 0 24 0 112.02232790307355 38.82970413979652 32.290815199580344 0 0 0
2351 2001 24 0 82.29368145474038 45.36322884029338 35.4104662452278 0 -4 0
1762 1412 24 0 85.94746134879922 48.09659880974835 31.883576429875543 0 -3 0
1798 1448 24 0 80.39502686152625 46.56628097750336 31.06255048456416 0 -4 0
2553 2203 24 0 90.4553907041622 46.426653554032775 33.31405237050717 0 -3 0
5033 0 24 0 95.2179664809381 47.60394575226076 32.722265428856645 0 -5 0
3746 0 24 0 99.84733416906742 46.308467458784136 32.37554612160633 0 -7 0
739 389 24 0 103.54183840358942 45.70643733954092 35.50769687509855 0 -8 0
5243 0 24 0 103.78775569696674 49.9665797383957 32.570131419154364 0 -1 0
6256 0 24 0 107.37510631818006 49.431684839089854 29.49742723882195 0 0 0
6218 0 24 0 110.42110586225222 44.14330885065216 29.13604929210446 0 0 0
6024 0 24 0 104.32066710437094 45.66154358400224 29.888563704356216 0 0 0
3202 2852 24 0 85.60006903172352 55.10405330109663 35.91632894462695 0 -4 0
1697 1347 24 0 80.06200044901243 54.69468175927034 35.08405857092998 0 -2 0
1478 1128 24 0 83.13380009049868 50.4040997977076 34.73827660960549 0 -4 0
1541 1191 24 0 84.62124677180915 53.37641119452886 31.40968404819445 0 -4 0
1810 1460 24 0 80.49220026919217 51.27836935520581 29.60784235724764 0 -4 0
909 559 24 0 89.65148507472472 52.12679097493347 35.51785206585057 0 -4 0
804 454 24 0 93.13872979106823 50.56117272634374 29.32183409760142 0 -7 0
1790 1440 24 0 94.6701914245694 52.15836490535606 34.5754385060218 0 -6 0
1576 1226 24 0 89.72544349896114 55.11984071366305 31.158096015300888 0 -3 0
4672 0 24 0 94.7649256896668 55.14595780197608 30.683165304481964 0 -8 0
4049 0 24 0 93.6932686721129 57.31935813629585 35.6288552055061 0 -8 0
4760 0 24 0 98.09499957748237 51.04689565636388 30.851263599576306 0 -9 0
1040 690 24 0 99.23931277438606 55.024343522432865 34.08884572877665 0 -8 0
5423 0 24 0 106.82057716228326 54.5819366341997 31.098552715979263 0 0 0
1806 1456 24 0 83.2629138326001 58.38854045875405 31.622382917891134 0 -3 0
814 464 24 0 83.95311898647803 63.10364462750489 33.26588830740052 0 -3 0
3077 2727 24 0 87.95381841816646 58.86636038638086 34.586480871020356 0 -2 0
1494 1144 24 0 91.6462459993477 59.48701481098567 31.447267222806175 0 -6 0
881 531 24 0 88.03148372433002 62.85836185766619 30.708712756175377 0 -7 0
3071 2721 24 0 88.53904059694219 64.14738536959553 35.793670419890745 0 -6 0
5085 0 24 0 92.96586986147145 63.30887760333401 33.55681264384079 0 -4 0
1724 1374 24 0 95.83849868871599 61.716920257885995 29.574429504965646 0 -7 0
5168 0 24 0 97.55084654230707 59.85445878530007 34.09369047568556 0 -3 0
3843 0 24 0 101.65132904991039 57.67224052785634 30.845321527289087 0 -9 0
3936 0 24 0 103.10818062361544 63.132042977208265 35.326142015929385 0 -9 0
5601 0 24 0 101.5875741390741 62.57879604691083 30.43815058171638 0 -1 0
4958 0 24 0 104.63838284392769 57.945858302646 34.998239531676134 0 -5 0
6207 0 24 0 106.54629047596097 60.02570909068147 29.134111170628234 0 0 0
4220 0 24 0 106.66982071348214 64.70637118238953 31.84455389451051 0 -10 0
5431 0 24 0 109.80969636550334 60.038353934445 32.68979244038673 0 0 0
4994 0 24 0 84.11591079915583 66.17012345533837 29.2760484365343 0 -5 0
2965 2615 24 0 84.63096903145177 70.33512796850071 31.842908021060914 0 -7 0
2456 2106 24 0 83.27189545249941 67.46955304378878 35.375804631023094 0 -7 0
5373 0 24 0 92.90004223532132 68.47301284875101 33.94146676560904 0 -1 0
801 451 24 0 88.85375311588288 67.61060829193809 31.84165052570265 0 -7 0
1507 1157 24 0 94.16801878447542 66.33923174309834 29.86155418458781 0 -8 0
4050 0 24 0 97.15718107139512 69.68321813990558 31.36993071992071 0 -9 0
3405 0 24 0 102.18738599145635 67.42182717309633 32.09165534309807 0 -10 0
4979 0 24 0 97.37498511102466 65.11412921278425 33.761731793728046 0 -5 0
4483 0 24 0 106.82542465186863 69.89881947190197 32.15972211841699 0 -9 0
2666 2316 24 0 80.54319066617505 38.7115949914203 37.053306173316884 0 0 0
3233 2883 24 0 83.86482088947713 41.07921508630332 41.0733332478216 0 -1 0
3063 2713 24 0 87.40471350815929 37.33146508664102 42.91231971605305 0 -4 0
2263 1913 24 0 88.16393007369277 37.85832704479341 37.95992977213608 0 -4 0
2238 1888 24 0 92.40854279739852 37.3657481244415 42.781533398461185 0 -6 0
989 639 24 0 89.39578696366232 42.20156846550248 36.054241924040866 0 -6 0
2531 2181 24 0 90.20016915875284 41.89612186455407 41.12250674391361 0 -4 0
2234 1884 24 0 94.93185572260342 40.551537566008335 40.27771226909719 0 -7 0
5047 0 24 0 92.82743515968258 36.67326271413103 37.15735687998355 0 -4 0
4620 0 24 0 100.26773374962585 37.47901861732235 37.79375476772492 0 -8 0
4546 0 24 0 101.84333558421429 42.57306815959581 39.43212517133648 0 -8 0
3639 0 24 0 103.5937529344502 37.66312148386909 41.28675183650605 0 -9 0
4938 0 24 0 96.85844294290104 36.10927703309223 41.3393353831302 0 -5 0
4444 0 24 0 105.80044547518935 39.059584286604824 37.03385938037394 0 -9 0
5748 0 24 0 112.30984435840514 38.31506514845506 37.58697263829034 0 0 0
1042 692 24 0 81.51374470438559 48.03005512525552 39.385590049660564 0 -4 0
889 539 24 0 86.33007921732847 47.67341917234114 36.58454477535908 0 -4 0
2391 2041 24 0 85.85691611128065 47.16868319602805 41.553984766899674 0 -4 0
2304 1954 24 0 90.1089349393046 49.69605674281236 40.1913172161693 0 -4 0
3221 2871 24 0 92.69012242492195 46.05533741085087 37.47578859225282 0 -3 0
2508 2158 24 0 93.65361052110676 46.067977257189995 42.67704151482345 0 -6 0
3776 0 24 0 97.98996015382019 46.0403720784497 40.510267142657185 0 -8 0
4331 0 24 0 103.2519346276545 47.34107815146652 40.89704183205984 0 -9 0
4927 0 24 0 99.52916833016086 49.151533057371445 36.55382452282224 0 -6 0
5122 0 24 0 97.46690981220375 43.89509800138923 36.16638590616533 0 -3 0
4674 0 24 0 106.51686194447873 43.70650797954515 39.99005090442699 0 -9 0
6219 0 24 0 110.51131533164687 47.94638038511503 40.9866750653979 0 0 0
5486 0 24 0 107.03305589704989 48.63295205998585 37.25054018475637 0 0 0
2490 2140 24 0 85.21639235236348 51.999745795547874 39.68362797567153 0 -3 0
949 599 24 0 81.80046746062557 55.9245027718317 39.80499045036087 0 -3 0
2237 1887 24 0 86.77228476393074 57.05161311444719 40.99821703009149 0 -4 0
816 466 24 0 94.80612177691414 51.11964912641857 39.76553610485519 0 -8 0
2459 2109 24 0 90.91243017779054 54.85953522712885 39.32478744432514 0 -7 0
2912 2562 24 0 99.86357817143673 51.65877641202704 40.854234064241126 0 -7 0
5232 0 24 0 97.84994975398958 55.19495393386125 38.583209531565196 0 -1 0
5540 0 24 0 101.16528213318958 56.1931033790472 42.47212029653696 0 0 0
5825 0 24 0 103.3429016255511 52.783379652757105 37.318620966252475 0 0 0
5749 0 24 0 105.37930258099239 56.95161557933971 39.703850066623644 0 0 0
5291 0 24 0 106.27629657137693 51.78597485766546 41.628328323334195 0 -1 0
2339 1989 24 0 85.2296161972062 61.142185792990944 38.059995504863224 0 -3 0
3082 2732 24 0 87.54822849485844 62.17134195138154 42.5268342257604 0 -5 0
2512 2162 24 0 83.25645928997675 60.07273210907382 43.17040642044735 0 -6 0
1672 1322 24 0 81.49802769419189 59.31094958471889 36.1856259731411 0 -4 0
2248 1898 24 0 94.26583185266125 58.12035546811413 40.65310375610603 0 -7 0
5260 0 24 0 90.06003941447987 59.83380950357559 38.9503453914796 0 -1 0
3192 2842 24 0 95.44090819615525 62.399702206082 37.898099983824295 0 -8 0
3347 0 24 0 100.73861359708955 60.05726077398232 38.57917825440065 0 -9 0
2429 2079 24 0 98.03063809847242 60.46565743570444 42.87736295259922 0 -7 0
5971 0 24 0 108.50095151973953 59.7870166547638 37.55930303242172 0 0 0
5560 0 24 0 104.79417833811033 63.44354050115295 40.23065307271782 0 0 0
5865 0 24 0 108.22647498134452 60.30019472586615 43.16066402420451 0 -1 0
3165 2815 24 0 85.66253071472161 65.7121922645649 39.93539969398133 0 -6 0
3107 2757 24 0 83.64330333514367 70.28199678260502 41.210464339154086 0 -6 0
4948 0 24 0 87.95669920938737 69.01439187707443 36.55578469895254 0 -5 0
2359 2009 24 0 80.12511086972977 66.57747351022309 39.23527380060136 0 -4 0
2298 1948 24 0 90.92623706536023 65.34413619854594 40.02813513826234 0 -8 0
5091 0 24 0 88.29831333402889 69.65082768670968 41.51422611106168 0 -4 0
3356 0 24 0 94.93648072606908 67.85144087370271 38.38778494965579 0 -9 0
4163 0 24 0 99.77559917624286 65.00556273772169 38.61748575420659 0 -10 0
5164 0 24 0 101.38724117038733 69.48295424012925 41.07196031977134 0 -3 0
3527 0 24 0 96.24957994856294 65.56207682443129 42.948928759742905 0 -8 0
3736 0 24 0 100.22720350891262 69.43290890214375 36.041406070941775 0 -9 0
5653 0 24 0 106.50466283814097 67.99463692738607 41.44140860692811 0 -1 0
4637 0 24 0 105.12317232723102 67.83046192688317 36.74398070632336 0 -10 0
2243 1893 24 0 87.08327038263643 41.84528418799975 45.081642037606024 0 -4 0
2251 1901 24 0 82.68636421944579 38.329987598425575 45.64056121551039 0 -1 0
2352 2002 24 0 81.84686253683036 41.87511866960271 49.57480462006024 0 -4 0
3228 2878 24 0 86.26296784556524 36.386979214786884 48.75925439484354 0 -4 0
5041 0 24 0 90.28373635384355 38.25985810269029 46.99862500066414 0 -4 0
1742 1392 24 0 94.27271063974024 41.84281370162214 45.239786562497805 0 -4 0
5793 0 24 0 95.66068415186587 36.89120572350946 46.52995734273905 0 0 0
6059 0 24 0 99.42737980357215 40.34016817723464 49.0449362496181 0 0 0
5102 0 24 0 98.68560006607704 40.151454873775336 43.24120649981905 0 -4 0
4978 0 24 0 103.80794719212706 42.92558989443693 44.52289783705681 0 -5 0
3965 0 24 0 100.56802906600934 36.26133198686938 45.707247133610956 0 -8 0
5588 0 24 0 110.99837681216808 42.50026604823156 44.62355344812752 0 0 0
5487 0 24 0 104.9445825926227 39.438361734826174 47.85047978766935 0 0 0
3232 2882 24 0 109.10955160790805 37.66622185235734 46.06521593129651 0 -7 0
6040 0 24 0 108.06446652763731 43.1589230360625 48.69503351870475 0 0 0
3122 2772 24 0 82.88806442062649 44.694536683288696 44.54792550787021 0 -3 0
2982 2632 24 0 84.36074797956088 50.21124621942956 48.52060870668931 0 -3 0
2371 2021 24 0 85.39365996953721 45.455628573089065 49.30004038361847 0 -4 0
2448 2098 24 0 80.45435796708601 47.301596855865625 48.8309380047257 0 -3 0
2981 2631 24 0 88.3508613206923 47.24709810488855 46.03463038484308 0 -4 0
2306 1956 24 0 93.63262166893261 46.796653956815206 47.52126751005434 0 -7 0
3112 2762 24 0 102.6120590859225 44.36180666684554 49.28781725981863 0 -6 0
2999 2649 24 0 98.10508191716849 44.5556584724045 46.365636643967136 0 -5 0
3134 2784 24 0 101.92004299783713 47.54700392686108 45.61800157712654 0 -7 0
4458 0 24 0 97.24721208974164 49.45291191364993 44.947140794075644 0 -8 0
3146 2796 24 0 97.77140818689777 47.9548439827518 50.281526739267335 0 -6 0
4661 0 24 0 103.03011270929825 49.57586220941033 50.110477984841395 0 -9 0
5354 0 24 0 107.04927559806589 46.837967429813276 44.27254844863463 0 0 0
6021 0 24 0 111.0910970562914 48.75308242261178 46.10434977074889 0 0 0
2307 1957 24 0 81.92757271098831 50.42431559857436 43.98000526800777 0 -4 0
836 486 24 0 86.32034279205968 53.30021142329832 44.18072391839686 0 -4 0
2449 2099 24 0 80.99880333118367 56.00725353493399 45.63338749362761 0 -3 0
3057 2707 24 0 86.14481933388812 57.37487320351035 47.45694668221161 0 -2 0
4225 0 24 0 91.98788668474758 51.329348453858316 44.24523012911142 0 -8 0
817 467 24 0 89.54779714237374 51.13682565383285 48.472946389060795 0 -5 0
3031 2681 24 0 94.50558181577685 52.83413934370577 48.128839184916664 0 -7 0
3235 2885 24 0 90.97646183788542 56.70077117510906 44.85588275805514 0 -4 0
2299 1949 24 0 90.49118343791655 56.09723911795053 50.04055585925079 0 -4 0
3767 0 24 0 101.52121099271487 52.45276380771493 45.93323073151299 0 -8 0
5776 0 24 0 96.05229648720997 54.11864275438349 43.60077791016554 0 0 0
5095 0 24 0 99.77772598116984 56.64548592987642 46.96155826608659 0 -4 0
5309 0 24 0 103.63396221785263 54.80121846463386 49.834066402209224 0 -1 0
4325 0 24 0 107.1039538321837 51.92452260599656 46.99021445234618 0 -9 0
4047 0 24 0 105.24818931694266 56.54572005025889 45.602907756538066 0 -9 0
5866 0 24 0 110.18017764699431 55.24106829588099 43.88467313189897 0 -1 0
6197 0 24 0 109.41922237827856 55.571546141702804 50.11114950932664 0 0 0
2474 2124 24 0 84.47524662209243 62.11343165232843 47.877255775982306 0 -3 0
4445 0 24 0 94.37605822815206 58.976304110447046 47.78707081403916 0 -10 0
3013 2663 24 0 92.23207994469497 61.573695756791416 43.607756530625736 0 -7 0
3016 2666 24 0 89.66739026255325 61.47062315266613 47.61681398041199 0 -5 0
4933 0 24 0 94.70507461536188 64.60788358049857 48.63202719294884 0 -6 0
2436 2086 24 0 99.04344565751694 61.72051158074438 47.565755041164515 0 -8 0
5501 0 24 0 103.94677065963671 59.65829246614527 50.06667230019409 0 0 0
3547 0 24 0 102.76731367812488 60.58705178150125 44.076703079570365 0 -10 0
4451 0 24 0 106.21738788348279 64.02943836059363 45.315024186971556 0 -9 0
5943 0 24 0 109.45246278576877 61.5761707330144 48.03755521071358 0 0 0
3184 2834 24 0 82.08524112535817 65.03737141606717 43.61287714552921 0 -5 0
2295 1945 24 0 84.30901557892493 69.46718468143139 46.7423861344734 0 -5 0
3164 2814 24 0 86.75669675725172 65.80220845878135 45.535511366661325 0 -7 0
2947 2597 24 0 80.35119612669689 65.96430411815105 48.830943538181046 0 -5 0
3088 2738 24 0 91.90978595419104 66.08996039210058 45.2831043346473 0 -8 0
4170 0 24 0 89.34731315902111 70.2235110642629 46.65583035842952 0 -8 0
2481 2131 24 0 90.14323259649244 66.04045823797611 50.283529859021876 0 -6 0
4161 0 24 0 94.13992685386155 69.77429255437355 48.424296229384744 0 -9 0
3664 0 24 0 93.40373880978395 70.6084045422968 43.379148994067116 0 -9 0
3366 0 24 0 101.06378735289 64.9160883867606 43.37141103785861 0 -9 0
5420 0 24 0 97.87021096988641 71.8684416296834 45.380334642280424 0 -1 0
5472 0 24 0 100.83669487514526 67.4692977581742 47.96214584680505 0 -1 0
5965 0 24 0 103.06060141332982 71.21761777442114 50.098753015434255 0 -1 0
5812 0 24 0 109.66213209056998 67.02564633687635 48.10135819414952 0 -1 0
5388 0 24 0 108.17617553124336 70.8863207250155 46.495382789969455 0 -1 0
5271 0 24 0 105.07527590235647 66.05250299879239 50.10570380970014 0 -1 0
2356 2006 24 0 83.65996246849527 37.594901885997615 53.15554920280387 0 -4 0
2264 1914 24 0 86.70405095969868 41.329364784059564 51.35082869763353 0 -4 0
2198 1848 24 0 81.51843284988362 41.95879498711238 54.98234180285198 0 -3 0
3044 2694 24 0 87.60186387515269 39.44896419475259 57.094754846276516 0 -3 0
3162 2812 24 0 91.21657410233186 42.754920916823544 50.52841702517505 0 -5 0
2301 1951 24 0 88.90002571661469 37.272625410787725 52.82620185236701 0 -4 0
2430 2080 24 0 94.65715406078601 38.029739704954295 51.606126494805885 0 -7 0
5027 0 24 0 92.27084821908186 40.4044749669162 55.03202863000546 0 -4 0
3105 2755 24 0 96.75492686290201 37.57744698754717 57.02586346047683 0 -6 0
2410 2060 24 0 100.48165597993159 41.904995093894286 55.27484563558587 0 -7 0
2316 1966 24 0 100.40047449776648 37.546119666665646 53.326368015678476 0 -7 0
3138 2788 24 0 96.33932836221841 43.048559020216416 51.26653965769914 0 -6 0
2242 1892 24 0 105.24684622425362 36.22844621080957 56.04131152182266 0 -7 0
6214 0 24 0 109.62145609598672 39.335086094383435 51.98752188563083 0 0 0
3127 2777 24 0 104.24537373587764 40.3906262046528 52.52969438946074 0 -7 0
3002 2652 24 0 108.26026864733429 41.36603249095547 56.07530659255665 0 -8 0
5720 0 24 0 109.88495174176064 36.0568988484046 55.758765335946954 0 0 0
3533 0 24 0 115.17703969763933 37.538971390044495 53.65805948300976 0 -9 0
3219 2869 24 0 84.90904719018747 45.49872529403791 54.74769673839913 0 -3 0
2330 1980 24 0 82.28920475510283 49.18173088655748 52.96771401935673 0 -3 0
2312 1962 24 0 87.37300451481089 48.47879869746014 52.13415285254276 0 -3 0
3027 2677 24 0 89.97163772621107 45.047011378905175 55.55048995965501 0 -3 0
3137 2787 24 0 93.25599814867084 47.39135818888301 52.63099683508955 0 -6 0
2507 2157 24 0 96.88011947511805 46.17947811419938 54.93043202253609 0 -7 0
3518 0 24 0 100.9413547795141 49.160975752802315 54.37540590007553 0 -8 0
4754 0 24 0 105.03542800481675 46.15926791472733 54.08684059720533 0 -9 0
3036 2686 24 0 86.67426092184297 51.202112077887726 56.82411896478761 0 -5 0
3043 2693 24 0 85.91427286535865 53.94702613115255 51.996388191395695 0 -5 0
2239 1889 24 0 82.37627534127046 53.661021249161465 56.934911529465374 0 -3 0
2387 2037 24 0 90.71835160270862 51.99684312074743 53.643164598854064 0 -7 0
2931 2581 24 0 89.06748438567676 56.65483726179446 55.24924775568952 0 -5 0
3668 0 24 0 94.61169840326046 56.32538481854511 53.160002886953166 0 -10 0
2417 2067 24 0 95.55252477477565 51.31051832508654 54.141185563349204 0 -7 0
2245 1895 24 0 98.57552159580952 52.73232538934168 50.53540501595667 0 -7 0
4562 0 24 0 102.11954743829448 53.932978455238796 55.0009747890019 0 -7 0
2376 2026 24 0 98.28507534403185 56.15243829626222 57.10154638784362 0 -7 0
2494 2144 24 0 106.00365342205197 51.96998521095697 53.05716742176276 0 -8 0
4564 0 24 0 106.4111079814226 57.322821365159456 54.536007958479296 0 -10 0
6247 0 24 0 115.51924630313407 57.085503089938996 56.61803578443521 0 0 0
5255 0 24 0 84.76566161880442 58.37185149129007 56.86319320798662 0 -1 0
2258 1908 24 0 86.00240379947674 59.52828700738152 52.05770895177007 0 -6 0
2315 1965 24 0 81.05899741094709 59.0683991142448 51.175786030939086 0 -3 0
3132 2782 24 0 84.64635873725453 63.37095832167948 55.057477255140796 0 -5 0
2921 2571 24 0 90.70790823610116 60.89100099244009 52.410048341039406 0 -5 0
3252 2902 24 0 88.869055020627 61.44575741426568 57.59880950828356 0 -7 0
2317 1967 24 0 95.39984778658182 61.47772127657176 52.63219311393237 0 -8 0
2231 1881 24 0 93.29701771662732 59.39397190416102 56.87444921058519 0 -7 0
3953 0 24 0 99.38667651047164 58.286416936535105 51.45117882035588 0 -10 0
5507 0 24 0 102.02341839465024 59.33567504879682 55.31987905432932 0 0 0
4540 0 24 0 100.38616768792852 63.33591043158881 53.055699947333856 0 -9 0
4632 0 24 0 97.87238340586732 61.73859110485592 56.98001107064443 0 -10 0
5815 0 24 0 111.4102436192006 60.08960547922782 52.39580878630022 0 -1 0
5644 0 24 0 105.5429827536068 62.806548098866124 54.50848114018441 0 0 0
5480 0 24 0 110.55094528159071 62.36413457101586 57.06109917723968 0 -1 0
2363 2013 24 0 85.2399421947802 66.0664390175205 50.48176781755177 0 -7 0
3069 2719 24 0 80.56584358962516 66.22274022598413 53.75468096804768 0 -5 0
3230 2880 24 0 82.04261962368142 70.31669836339458 51.548951520186456 0 -5 0
2505 2155 24 0 83.78336592254058 68.98062757103898 55.94607102508656 0 -5 0
3231 2881 24 0 87.22677080919948 70.29195459002459 52.083637446564005 0 -5 0
5198 0 24 0 93.60693047095916 64.95346352299474 55.93490474717817 0 -2 0
5179 0 24 0 88.39277943516282 66.60076172136185 55.43084017243588 0 -2 0
3255 2905 24 0 92.41469307793187 69.24063645120586 53.342152194599926 0 -7 0
4179 0 24 0 93.98060220471251 71.56381550327963 57.420252784558215 0 -9 0
3535 0 24 0 97.94648490589745 66.63204948041374 56.35201331066532 0 -9 0
3100 2750 24 0 97.73373273960405 67.56401508802954 51.625914426702224 0 -8 0
3747 0 24 0 102.75899981262255 67.16203142628466 55.11919517603195 0 -9 0
6216 0 24 0 109.60845597950596 65.39494513066208 52.6443740356267 0 -1 0
6241 0 24 0 110.21502650252496 70.75100479932588 51.63826520344654 0 -1 0
6048 0 24 0 106.30701537149692 70.75876284842374 54.3324497118984 0 -1 0
2497 2147 24 0 82.91766043489504 38.35927949244134 59.899356141801 0 -4 0
3246 2896 24 0 86.6247763643641 37.72402950339318 63.165814965830194 0 -5 0
2518 2168 24 0 87.36584935169121 42.338563073334875 63.13357123023507 0 -6 0
3236 2886 24 0 82.52270792403901 41.15379447123323 63.87102966686298 0 -6 0
3172 2822 24 0 84.41691334394713 43.093986022509995 59.13175040397943 0 -3 0
5298 0 24 0 91.9545229077346 39.77752033540769 60.44144203957046 0 0 0
2546 2196 24 0 101.28387971148314 37.07968238598178 58.88938856357193 0 -7 0
3618 0 24 0 97.8220524632691 39.38709992357187 61.712310152507676 0 -8 0
3744 0 24 0 101.31864164415033 42.87499543937019 63.806748229745835 0 -9 0
2913 2563 24 0 103.68166090534324 42.796399955263084 58.95907472619262 0 -8 0
5872 0 24 0 111.39183414261494 40.80792076237484 60.072188277656124 0 0 0
5273 0 24 0 106.12052619749667 38.29921727853647 60.438029063085835 0 -1 0
3243 2893 24 0 81.4196168562248 47.44694904293397 57.92658508429189 0 -3 0
3214 2864 24 0 82.53114409526708 46.1105683558398 62.431963855898196 0 -3 0
2313 1963 24 0 87.92538500139652 46.98739539096788 60.29911842002764 0 -6 0
3248 2898 24 0 87.38317351240893 49.317820081515755 64.52001959572736 0 -4 0
3141 2791 24 0 91.83436875223194 49.12968074532025 57.729344755473335 0 -5 0
2388 2038 24 0 94.46082690489068 43.91964984525447 58.319405151020824 0 -8 0
4635 0 24 0 91.83979658422068 44.8920494060789 62.575360385511964 0 -7 0
4164 0 24 0 95.4614261400586 49.18826538448921 61.12728463933843 0 -8 0
3964 0 24 0 96.55620930077497 44.51412597839951 63.225013666803825 0 -8 0
2374 2024 24 0 99.7616254156309 45.76029359959554 58.835668327370364 0 -7 0
4513 0 24 0 100.34100632961223 48.13295970375342 63.0204680026553 0 -9 0
3240 2890 24 0 104.01451911090474 48.58240667972176 58.72776104291509 0 -7 0
4791 0 24 0 105.20750789620365 45.72462040409942 63.00094389851711 0 -10 -1
5966 0 24 0 108.93220588572463 45.559586814571155 59.11728347392327 0 0 0
3038 2688 24 0 83.97446427085531 50.57899016660563 61.10340677074077 0 -3 0
3204 2854 24 0 82.47185510085721 57.29746317261648 62.199910345872134 0 -3 0
2962 2612 24 0 87.0596314459536 55.111614784425896 59.92143075287109 0 -4 0
5037 0 24 0 90.92859016429372 52.58185615217778 61.775221675332276 0 -4 0
3229 2879 24 0 92.85376645777474 54.52135123833136 57.67997573648831 0 -7 0
3620 0 24 0 94.85592145140174 56.85178493926889 61.776080845088636 0 -9 0
2985 2635 24 0 98.68419839832394 51.04108849144099 58.034406873650276 0 -5 0
5573 0 24 0 97.35241503775094 52.94597459631728 63.93005106521833 0 0 0
4975 0 24 0 101.64358377960103 53.64517760571572 60.83255646514954 0 -5 0
5671 0 24 0 106.09431879110332 51.5386275249777 62.999514635625445 0 0 0
6238 0 24 0 111.3783332580569 51.92081037490508 61.89558224240054 0 0 0
5789 0 24 0 107.36368938744238 53.44489975012626 58.2763850014365 0 0 0
5662 0 24 0 107.37265131626081 57.16499968036762 63.49041940368052 0 0 0
6144 0 24 0 109.45633099441173 57.57730621217059 59.31398551168011 0 0 0
2220 1870 24 0 81.58607536812504 62.59786986416628 63.839667280202164 0 -4 0
3151 2801 24 0 85.90317011019262 60.73568828567738 62.09115768490072 0 -5 0
3140 2790 24 0 82.3823084302788 61.918174546815315 58.89988974938127 0 -3 0
5180 0 24 0 90.64734508686738 58.48349587712293 61.24763280405917 0 -2 0
2470 2120 24 0 89.79464605395242 63.5880217740601 61.64288251082116 0 -7 0
3173 2823 24 0 94.70215076889019 62.26966802733311 61.09032568379988 0 -8 0
4297 0 24 0 99.2344626231568 59.5564092295638 61.11349632378162 0 -9 0
5238 0 24 0 102.88542368656364 63.258049889980434 59.498854826001626 0 -1 0
5231 0 24 0 104.06413920592259 58.154581265297054 59.66387366155215 0 -1 0
5654 0 24 0 104.28337485523448 61.55952566834185 64.3632198647903 0 0 0
5754 0 24 0 108.126578070231 62.57174269284262 61.40857700847191 0 -1 0
3250 2900 24 0 80.38519263834912 66.31363330585316 58.64400139466143 0 -3 0
2502 2152 24 0 80.47326390140401 71.44300032996934 59.73848829393155 0 -3 0
3153 2803 24 0 85.54872956872823 65.92516582886276 60.13387041344797 0 -6 0
2206 1856 24 0 93.9685240350651 71.52751800446391 63.1963552120271 0 -8 0
2274 1924 24 0 89.9031280345399 68.63288307383714 59.95732364996359 0 -7 0
4980 0 24 0 94.8234070040273 67.2561972271242 60.2901902143533 0 -5 0
4100 0 24 0 100.42610072549344 69.05768038056915 64.45751878906502 0 -10 0
5012 0 24 0 99.1488671956312 65.61038795498935 61.499219237855655 0 -5 0
4854 0 24 0 98.66507028689892 70.33961839977033 59.40107219101095 0 -10 0
3622 0 24 0 103.60439253453367 71.10423417273505 58.54559036841346 0 -9 0
5405 0 24 0 107.04361395765854 66.02780238105223 58.13957367187599 0 -1 0
6171 0 24 0 109.05117667982128 70.5702488684578 59.02443606848226 0 -1 0
5220 0 24 0 104.17028360743143 67.29819124800413 62.019496520268326 0 -2 0
6098 0 24 0 111.3842135635019 66.66968548331423 63.339842383759944 0 -1 0
6103 0 24 0 111.01843983234242 71.87661773022126 63.618553240187445 0 -1 0
5814 0 24 0 113.15977905172693 66.6850466454599 58.27564695656371 0 -1 0
802 452 24 0 82.85734415220361 39.44051872356552 68.50080995403974 0 -4 -1
5197 0 24 0 87.24690118917515 40.89964955331481 67.95010530172608 0 -1 0
3114 2764 24 0 82.29238378372696 43.031136264821974 71.92048770977576 0 -3 0
5088 0 24 0 91.2216855840109 42.4270288149544 70.95731516567898 0 -3 0
2944 2594 24 0 95.85151588404628 36.48058076399412 67.71664461399364 0 -7 0
1750 1400 24 0 95.75089543530292 40.11300024601817 71.24003843566243 0 -7 -1
3840 0 24 0 92.60542991763928 40.74124577534007 66.11828659491393 0 -9 -1
2320 1970 24 0 90.67178784444526 37.60143827817491 69.4836746242924 0 -7 0
3623 0 24 0 101.37289631064981 37.963768651131026 66.1993806290254 0 -9 0
4792 0 24 0 97.8399433486726 40.96211808106192 66.91830768940478 0 -9 0
4415 0 24 0 102.19378555076916 42.33613778191389 68.5853056203068 0 -9 0
4031 0 24 0 106.29553950754234 40.913284438748725 65.15291972407032 0 -9 0
6222 0 24 0 108.82452528611601 39.85011189917508 68.96566515002768 0 0 0
6223 0 24 0 110.89150245306136 43.109752537149724 65.3403360713027 0 0 0
6057 0 24 0 110.34842691176961 37.2726492862328 65.09728421020466 0 0 0
4376 0 24 0 104.854492738929 36.60114712974037 70.1008729441749 0 -9 0
2260 1910 24 0 80.53055750740867 47.112055950063144 69.68676993913981 0 -5 0
2439 2089 24 0 84.65076260962795 44.90496880498386 67.63715240247448 0 -5 0
2297 1947 24 0 85.47559741244697 48.86975355176322 70.1997555005799 0 -4 0
3201 2851 24 0 81.7726012524614 49.86700433845949 65.56052591750212 0 -3 0
2291 1941 24 0 94.82483461970719 45.121033128809344 69.20375273296834 0 -7 0
2935 2585 24 0 89.47847442355128 46.08159408460868 67.36732182730702 0 -6 0
5015 0 24 0 93.2016869144898 49.03501493120413 65.92512990083047 0 -5 -1
4480 0 24 0 100.6271126797187 49.852218163371795 71.61958125438825 0 -10 -1
1039 689 24 0 99.1440418526017 46.038160449394375 67.30960646796159 0 -8 -1
5500 0 24 0 96.44270205182383 50.24054208868033 68.92988308960224 0 0 0
3404 0 24 0 103.96778457421213 47.82715094847436 67.14574218840262 0 -9 0
6052 0 24 0 109.28949311834444 48.02118774180001 65.11137775466752 0 0 0
6107 0 24 0 107.66942921334785 44.72185799718674 69.13686869756826 0 0 0
5955 0 24 0 107.36120190236325 48.92194435201545 70.79839098236192 0 0 0
3781 0 24 0 112.39662448794566 46.256422402974124 71.8132148005186 0 -9 0
1072 722 24 0 80.76497776185606 52.06368689872302 71.5571002578593 0 -3 -1
2541 2191 24 0 86.9706033616786 54.333701924428915 64.8363316271988 0 -5 0
2440 2090 24 0 83.18255181639206 55.134524950667526 67.94227378466425 0 -5 0
3189 2839 24 0 93.08945240940052 53.381606177876385 71.15188189726908 0 -5 0
3161 2811 24 0 89.77673419543092 51.137124833046165 68.17076950497088 0 -6 0
2272 1922 24 0 88.07328946270707 56.24610922657938 69.81635798459341 0 -6 0
5072 0 24 0 92.83787739214105 55.11139732808981 66.06256946334439 0 -4 0
3728 0 24 0 101.68424966734015 57.285696627982425 65.31728697944784 0 -9 0
2542 2192 24 0 98.63138617456775 54.510037250057636 70.49544666236645 0 -7 0
4186 0 24 0 101.28898291680096 52.19984741542262 67.10029779794614 0 -10 0
2988 2638 24 0 96.94820532854818 57.58569089699309 66.39816550166627 0 -8 0
5695 0 24 0 106.69145644607205 53.131699533726355 67.75207983342376 0 0 0
3049 2699 24 0 84.0855306417258 63.954176601658695 71.52793951590749 0 -4 0
2942 2592 24 0 82.83483690061401 60.07780119888244 68.21232367521064 0 -3 0
3055 2705 24 0 87.71844976540945 59.8006499916756 66.54928342932219 0 -5 0
3226 2876 24 0 88.26447556872208 61.48629040020957 71.42003790038468 0 -5 0
1055 705 24 0 93.09506539283056 59.446327684052 70.46893942526553 0 -7 -1
4333 0 24 0 92.93768631292113 60.68013273934869 65.53908040390468 0 -8 0
2341 1991 24 0 91.56790811296652 64.76225213200313 68.92044669539385 0 -6 0
5489 0 24 0 101.55985415644602 60.14148819338357 69.45103025660072 0 -1 0
781 431 24 0 97.09541000901693 62.463240225832514 70.38834881780527 0 -7 -1
5155 0 24 0 98.21666636913726 63.06311566175591 65.7280627786851 0 -3 0
5714 0 24 0 105.94176987697873 58.56367904657972 68.05644936662333 0 -1 0
4019 0 24 0 110.11882539079839 60.94335232553147 70.66006447507328 0 -9 0
5688 0 24 0 104.84950577711962 63.740027941603955 69.57501771717932 0 -1 0
5723 0 24 0 109.36029436019544 63.55207246797771 66.40891783805613 0 -1 0
5908 0 24 0 112.91148226551147 58.8749900354137 64.98864625243255 0 0 0
3103 2753 24 0 85.79422265255614 64.9743209608478 65.56570598821031 0 -4 0
1757 1407 24 0 80.42640320318829 65.45061047813336 67.77675068449922 0 -3 -1
2409 2059 24 0 82.82849493483366 69.52739970997347 70.61829298380984 0 -5 0
2453 2103 24 0 85.15606479791634 69.65287497124807 65.39679199661968 0 -6 0
1630 1280 24 0 87.84708394421153 67.72318672581363 70.01265937210864 0 -5 -1
3028 2678 24 0 80.02700638014231 69.40876824342827 65.14107705351539 0 -5 0
3087 2737 24 0 90.06327443461096 68.62604161941445 64.98866626593187 0 -6 0
5222 0 24 0 94.30834164678294 69.54071098337407 68.27937158098285 0 -2 0
2196 1846 24 0 94.45202451012872 65.94018774006024 64.80208520429343 0 -8 0
4041 0 24 0 100.4411846902357 66.73790467383982 69.27947394300051 0 -10 0
5692 0 24 0 103.8469684750575 71.43153977168477 69.28973271047346 0 -1 0
6155 0 24 0 108.020740205625 67.76738919391413 71.03710104371575 0 -1 0
5493 0 24 0 105.9609635219273 67.37165858915368 66.46178134732122 0 -1 0
6141 0 24 0 109.00577688429641 71.9945310910828 68.44488969558927 0 -1 -1

Velocities

5996 0.22027269716707537 -0.0317067886179065 -0.04980019484069015
5344 -0.00019963814518162565 -0.11587495311700471 -0.13330606175149282
3893 0.07054238243195718 -0.0005948049130980321 -0.014295323076107733
4471 0.17959895746720234 -0.03962679034119593 -0.0034537873308061826
5209 -0.14706098305952717 -0.012048276324714963 -0.034895570294904525
1466 -0.057923677793599096 0.026283170996742537 0.026153873173161986
3477 0.11016829972888728 0.049624729728007584 -0.12256514408538105
1850 0.07247536658754149 0.05901552128946265 0.04567667521701478
1432 -0.01986193643972485 -0.11529304854184998 -0.1217844146666859
2034 0.15738902140356306 -0.027741755453144216 -0.010845935290805284
5948 -0.08275247614896172 0.15206265193281127 0.006698587428910956
5843 -0.046792779308069944 -0.016459871696199297 0.09056101258834208
5418 0.08395136432904303 0.054497079202507195 -0.13434072378464723
5483 -0.0017532901685220932 0.12689019023860848 -0.028785915929676636
5788 0.09779936879412919 0.04936118364542829 0.025966554334594855
4215 -0.015499778481507888 0.10637316397699162 -0.22522385959254265
4148 -0.01089698597878501 -0.052170417478524515 -0.12302302623338016
5634 0.009870471819693718 -0.10435948178181982 0.09338748339231759
4977 0.058645621272824466 -0.1217924005950008 -0.06000997522342229
1358 0.09267334798462987 0.004248262797528501 0.10882403068321829
4155 0.05110456096738325 0.1439052072042303 -0.0926930669112615
1255 -0.084419332307429 0.07914394072565079 -0.005732428713789796
5061 0.02578537814268477 -0.16467930176288742 -0.04056728352171725
1400 0.18331049212565168 -0.2675489329880075 0.002097937775664898
2733 -0.1646996442775403 -0.009359374420738337 0.09498450673829217
2827 0.1413030176701781 -0.034214946448992395 0.05070746407329129
433 0.08460360635567203 -0.1500170676578529 0.08081412294389925
5970 -0.14757345483341222 -0.005685755784248096 -0.008401627403374162
5685 0.13474752345604105 -0.09905479309699193 -0.10384083503085066
5848 0.10833527557173556 -0.07298420925102166 -0.017201113747043494
5710 -0.09483543603771294 0.06971256372275991 -0.24027341760894808
5378 -0.0025040649016470386 0.10622151266529087 0.0046692947592156045
5196 0.0620921059676771 0.12385370939678295 0.05701115217180107
5199 0.11057570175432302 0.0849917119906331 -0.21259633817781284
5265 -0.10611565789644703 0.04958772238389678 -0.015792090366931206
6085 -0.07663980472340776 -0.1531328282158269 0.08657716040784871
548 -0.07787691671853463 -0.11178750847497979 -0.04430978193658383
4066 -0.04966337252113071 -0.05548328306368102 -0.1213015399044905
5393 -0.09921494439726922 -0.14631446376582946 -0.046480404389772724
598 0.09268026370641565 -0.02612993004796524 0.07791425724878322
1157 -0.07894375373847369 0.05832596439275215 -0.1597347464807145
1246 0.011867531884561747 -0.022105995727982775 0.019654585277260567
5906 -0.09433743099753893 0.08753309401680155 -0.07276634004890634
5904 -0.039078508825874825 0.04701059880688816 -0.06390269973060335
4524 0.03713049937224945 -0.008139275666184099 -0.017982572483320625
5610 0.03815210769531475 0.045018368068329984 -0.043250130374859155
5897 0.010700374357221789 -0.07395701583200134 0.07575870290986209
5833 -0.19928460733983572 -0.046685388215093875 0.07395890022818014
4953 0.1804977070534461 0.16610481733959417 0.1556176309066385
2119 -0.02486538042250321 -0.10433315514846814 -0.2770183144617735
5561 0.1452912362230992 -0.07290411844933008 -0.06432179495884338
4205 0.023967716524400905 -0.031198257814145928 -0.007136305600617627
404 0.012802722483273488 -4.039232801237441e-06 0.08416591436066814
5412 -0.07961775226122957 0.0943845096163948 0.11286213705448883
3606 0.004597975148341472 0.017203989637456785 -0.03017363634105339
656 0.07320345766459505 -0.11087134153417211 0.13861924516220953
2758 -0.12022634591281438 -0.0380534766169557 -0.08512661432628701
632 0.1255746175839313 0.09129496441751096 0.012707467153768623
5863 0.00047372305305695 -0.029821078660096756 0.09464655153019469
6190 -0.12840072782791997 0.0893925348358655 0.06782853334915892
5824 -0.10574398807392495 0.016713720593101958 0.19680371776837882
5627 0.03630501588932959 0.06401634383484114 -0.11048470645643604
5641 0.05138335017452769 0.0666409044207925 0.07911606023729006
5482 0.03262706308456334 -0.02523368721462975 -0.010958094740396105
1416 0.031816761820173164 0.10261978151681717 -0.027913419100329132
1333 -0.07466597239617583 -0.05376630210068912 0.06769711220763404
5449 -0.1333616128430704 0.10815917272572749 -0.015432014242540183
4317 -0.018235837012145508 -0.008925560666993595 -0.025732219091283523
1233 -0.03754843378932334 0.005781580790989636 -0.006816748816738438
3603 -0.04511782894929957 -0.0568387904005517 0.07872687196729714
427 0.10929783245906811 -0.12480512924670902 0.07884536367989439
1896 -0.021986527194408335 -0.014024198408990982 -0.12925753581652932
2781 0.03580327200690916 0.14376740033564456 0.017996693084927132
5853 0.0707725035752598 0.00590295375927144 -0.21066093296938823
5954 0.03522145267271023 0.005473570754757427 -0.11485107630702465
6090 -0.09067937857362837 -0.08187746262210487 0.07084830678290045
534 -0.1028991803483835 0.03029555548175343 -0.030683640307742927
5460 0.09556087006968236 -0.032987320897942436 0.0715118947328612
5224 0.12142239201911431 -0.0356936757203821 0.05053028016375279
6194 0.09803626855271792 0.06798280132048923 0.21237858248302888
4922 -0.04803208493198674 0.1141581860703024 0.14569880458203602
4704 0.059927697189460095 -0.06710795092928677 -0.056055613667458086
3285 0.04992185693819156 0.3033204739228063 0.08230341804083499
1288 0.015485476802374838 -0.09313608670365901 0.008656213151882159
4607 0.06549921501992481 -0.12233550209960437 0.128599658122388
1374 -0.14690807154525742 0.1586942150892551 -0.04625183169659733
699 0.14014529095315525 0.06340268527167364 0.018534572079784137
5101 -0.08437134115763169 0.06145961273709616 -0.06198776632739745
4054 -0.02108649337356059 0.005531275882057507 0.06007019127784236
1144 -0.21449550985183102 -0.17478060632711842 -0.03300004963514648
659 -0.035129133112657245 -0.053438482837749185 -0.04169296699554441
6179 0.0619843046162184 -0.040783209645630134 -0.033314944612768835
394 -0.05874113716151991 -0.10079632512240173 0.11231676712664948
5536 0.020891082901187942 -0.05410747680793217 0.027517032531567495
5331 -0.2144772535608011 -0.002844166934850033 0.05641458077803119
650 -0.13779938650476087 -0.1229976224330864 -0.2500692118445658
4391 0.024927145859070878 0.08481694933878436 -0.09826201620892883
3265 0.16454638351093764 0.0785864366267593 0.007862230535188336
464 0.058589361489415445 0.17594687567013745 0.08767799518434737
5311 0.10104152210464051 -0.059900133071321617 -0.05486159455020239
1429 -0.05035134930546699 0.02891625488298378 -0.06728708917444713
633 0.047095176844774725 0.08107620632528853 0.006858489390885923
4924 0.06283526014821825 0.13491548532618552 -0.13022062698686399
1420 -0.013064685961704387 0.047380652781044134 0.19215625508777617
4901 -0.06590063625857907 -0.1927798266840853 -0.06814773460816087
1269 0.09231416973960362 -0.04878660895997605 0.004030551721952234
5691 -0.014201210365788409 0.016715340477410325 -0.017777326609258317
5384 0.14930693490055844 -0.09545722155763492 -0.06568700351862986
5909 0.024243441357515647 0.03449894855310186 -0.009877889288304652
4976 0.03319143460030134 -0.24086157310281306 0.0022334718083900306
5522 0.007121753520903771 -0.1748405338580004 0.0706907616347807
3307 0.13456324554922242 -0.15451705349297185 -0.10390223118906416
1431 -0.009729073455615113 -0.08325792854224098 -0.10369080098392519
3319 -0.05858623852420089 0.015854462660848053 0.044254769108820126
641 0.0485009687864175 0.04231473459886968 -0.0036395333415104114
405 0.10254666987750818 -0.07475951051859595 -0.037131469710394015
2861 -0.008378178805369021 0.1604810381336635 0.009701863538865301
6226 -0.09738837048643957 -0.14340467778898006 0.051213788578012016
6030 0.1375259726423338 0.0014349013457655505 0.07647324184391106
5581 -0.0002734605215153896 -0.11340292469977119 -0.14948185629755698
6003 -0.17973747349075034 -0.022858339282208283 -0.07463182974362709
5983 -0.025942228533592047 0.11059198485331947 0.06946557391735511
5221 0.07336255415574221 0.022422477827047246 0.034425798158269016
5369 0.10225218659524704 -0.0017167986514253619 0.03689052242567976
6099 -0.026203047881808536 -0.042704360102431185 -0.09555599018733864
686 0.006750500136659709 0.09564089310674129 0.09351303439777799
3815 -0.003869440317256098 -0.004548249655138808 0.032110003661078655
6038 0.044827716162859105 0.07854124849938415 -0.06586070484951409
5285 -0.05342215275460859 -0.04682005634848601 -0.023078603515862314
4981 -0.060306227767771864 0.04159385454596019 0.048292817818165676
1264 -0.005299705925406257 -0.07917384345451994 0.1429209940206919
4086 0.0011648537840425709 -0.04700479748950072 -0.04331599523069114
3334 0.07669811190562777 0.07280021512759915 -0.039870218112529394
5035 0.056737543710909666 0.028739509276149232 0.06546265574648524
692 0.04310754148693434 0.09454889654076674 0.09964386335002962
605 -0.09472124162947898 -0.19427211822420737 0.025765790459604716
5343 -0.09171808694388567 0.020801036223208755 0.003928027362180611
1194 -0.10798479731535046 -0.1347812453275998 -0.023041452358233447
1403 -0.21082049143523365 -0.12123691496972253 -0.06116593231398006
6077 -0.020324043985652095 -0.01624697700989274 0.03364371956515747
5949 -0.07506766306136965 0.05516737715645702 0.033048268152464755
5705 0.07935829731745903 -0.09405836573213218 0.17592643946030856
5506 0.045176591477411175 0.06205511374645492 -0.05728631954910392
5715 -0.03899675965786651 0.033196598342096734 0.010530106819898397
5203 0.07409776902333531 0.01857545683833528 0.166801673474756
6066 -0.10348632838849542 0.02675527817192892 -0.10770769363839929
5395 0.14990556889633339 -0.485064947671021 -0.04158767831013244
4954 0.14122514686191032 0.04386936179904602 0.1032856702196424
5268 -0.03677494376675347 0.05647966660006147 -0.05589004403453491
434 -0.08596679872107653 -0.11680189966231777 0.09407266356721296
5410 0.03155915463859957 -0.08704437543644873 -0.06456706282010108
1163 -0.041491158513118145 -0.1623514610250564 -0.0709609542040332
1465 -0.21046028053389731 -0.14207763955935002 0.10518456057848377
435 0.025667262652042 -0.10480231546951317 0.13940874141894535
442 0.06333188577172957 -0.12783985234047981 0.0351917894591645
5615 0.059981542415956136 0.04972855114718101 -0.0648783488428411
5623 0.07550911332068908 -0.018146906550675464 -0.008477397587434755
6083 -0.03912188322640348 0.13885087413618136 -0.09079517371324727
5711 -0.11151319057267103 0.05518675928944197 -0.10025236552550768
4656 0.00906126564376635 0.13889449557690225 0.041386475898539186
5459 -0.1407704199670411 0.15744151247508542 0.17272250603403905
732 0.10198270655009681 -0.016983248780215413 0.03212191005625455
5206 0.05800782722097675 -0.08150024156141891 0.018115655847838894
387 0.053432449505564 0.03801978000068531 -0.08991915779640114
644 0.1188645390529643 -0.0464900516870522 0.021646737223532254
3919 -0.06532317347601685 -0.10258701920370102 0.008701730433147538
1126 -0.05933449869465578 -0.12587133562870975 0.05542064897882251
606 -0.07148981119376308 0.05637899953334144 -0.009093280439277436
1251 -0.06319292792637606 -0.07880230327898005 0.0936513022417674
1331 0.0912784608914367 -0.0882390195949879 -0.15399193634089994
5650 0.008030270025436584 -0.02571193514175489 0.12492272198546599
6183 -0.12261368502374755 -0.21961124066312965 0.05375736641850767
6113 -0.0384619255689863 0.07663966801430695 -0.0290410895795343
5547 -0.23058863720796713 -0.1618717868218863 -0.01181687933046631
4589 0.1437414639056822 -0.08514169153967543 0.0547360863885112
4191 0.08121504335440796 -0.15591962023745054 -0.05752470424432388
3286 0.024879844966587964 -0.04722349759784533 -0.007614613020199293
1283 0.021309920109453834 0.051822005757215225 0.00031003775242105167
1181 0.05672908142594357 -0.02528472114889411 -0.17659007982746652
554 -0.21888402696497808 0.08728693588465897 -0.023620841155535068
4312 0.12351352095742853 0.18731351900519677 0.04603688826968147
1394 -0.09610281244880703 0.04696624277626139 0.03628714751125106
1161 0.10513958107618798 0.09003435334890186 -0.0837246378124282
3294 0.0030342298669154485 -0.011821706538477722 0.028296147714626085
1241 -0.044499712607405206 -0.15904481823974984 -0.10534079460349599
1208 0.09139014384855068 -0.23114150062017522 -0.14122057312109926
5657 -0.04732575373202705 -0.049402169744123016 0.15285612261075399
6233 0.04476466736243305 -0.09102481438604632 -0.03550404593712896
6167 -0.0032334147937769318 0.07632428458548952 -0.10532576106065064
5769 0.10363086294667531 0.01212404296664618 0.038597765932765864
3471 -0.005438048126344314 0.0548435737036539 0.029781014335859064
6111 0.15400338626411242 0.0482280049717754 0.06875876804834716
555 -0.11693177882390532 -0.0584087737007568 0.1408462410817692
4310 0.01564826041936007 -0.09997808537787757 0.008446276474634955
690 0.10024023716687433 -0.0026932015691546844 -0.042145693823913616
5357 -0.12795403580298417 0.01563654784393985 -0.052007640668492935
4057 -0.016009620705425373 0.11545570357316869 0.07738597184403591
1253 0.15883925988872302 -0.007821332965745633 -0.029348830860147664
4466 0.07294017087852389 0.11413097330102533 -0.08476271356391372
1330 -0.06998315391200925 0.07259551146289173 0.05746289257929539
1329 -0.08736315525491373 0.11520239677802688 -0.014523313268207348
6181 -0.02369238666873419 -0.03411577540393628 0.02508925435764893
5782 0.0508586215559676 0.10768663728765232 -0.0772700338170426
5515 -0.05240831855696442 -0.04501048087372337 0.05615058406440745
5570 -0.05662081716649198 -0.09287332889764068 -0.05426592801283182
5474 0.027337950299658152 -0.011193641546305639 0.09010677627582622
3891 -0.09705411532664365 -0.05862148538493296 -0.05780728088012915
5648 0.0801274385867725 -0.03488370262439356 -0.06400133083867712
1383 -0.004519140188766571 0.07708399002135918 -0.05304252513539754
1159 0.17321684608623747 0.08368115659765533 0.0018597350073223974
4198 -0.06794715515257088 0.03886648812728237 -0.09204793451963322
1336 -0.06309266259760857 0.017565042547398296 -0.006362135440672181
1275 0.01635294686311213 0.04243574820447921 0.015227954502323117
1323 -0.09004506390757251 -0.11095770851965803 -0.04319701577750944
1139 0.07138898250705342 0.0360765827108666 -0.12627597164465432
6210 0.25729515076780995 0.12031822487562156 0.013445025833715304
5492 -0.28111482769817875 -0.07625716661358549 -0.0008450996656325614
5600 -0.016242013752743485 -0.07570286142230954 0.309568886508915
5740 -0.004442135162578242 -0.013343385819043445 -0.09749220458709104
5434 -0.10049212176149976 0.06726574529308299 0.01517999615147413
3910 0.08980786050524134 -0.01885672459866671 -0.04170922206410585
4139 -0.049696131752206635 -0.16360101244744207 -0.04627535012769097
3462 -0.05970975476596419 -0.02176772219401705 0.13363627771940623
1368 0.02307748149781236 0.024834058546916202 -0.1992388589595907
4772 -0.07613887026075063 -0.07165671427832374 -0.04099189651275702
3798 0.07872278241959693 -0.005383928017822383 -0.10946336383192717
1459 0.013884149172010599 -0.1177385696489566 -0.18695245342568131
1354 0.06444398959647842 -0.09905480174792396 0.15264056682577942
567 -0.16407196881412348 0.08707819376694148 0.03228116582854165
1451 -0.018336005046407672 0.05032773711158628 -0.022723811672983214
5979 0.019016276264370864 -0.046199174647548504 -0.010622648416828404
5684 0.06413976204857322 0.08921066372908953 -0.07719670853187591
5862 0.0695959611251984 0.10333478099686794 0.07915505296414964
5732 0.1255063123057094 0.015431456451289072 0.10027652935002108
428 -0.03946315103749129 -0.0842380139480439 -0.0556062132985433
5376 0.15055950534617907 -0.03211961310971692 -0.0052902002713292005
5228 0.05434211181098911 -0.10574880443919232 0.044740527431506846
5081 0.17593453477194218 0.0660435049041873 0.0876613862409032
5185 -0.061739938230922206 -0.05222178180628311 -0.010796894317260278
5438 0.027260287737566082 0.06724982046392183 0.09865891718442447
1129 0.12241569131972888 -0.009638767702274818 -0.04780575284631569
1117 0.1771573287155585 -0.16153866173545733 0.2143186775060555
5891 -0.17232205466972889 0.044090649750806274 -0.03498120625689446
6087 0.035530986561889646 -0.062452150670191386 -0.05284794835129301
5585 0.14747294843462097 0.017977175416169708 0.08088014486764823
5813 0.037149982923686896 -0.016647832508270483 0.04121461577187606
487 -0.057578300715829325 0.12594344217227246 0.16474918760775006
3574 0.24356913860014937 -0.022502908473532125 0.18723874325230822
4732 0.03596846538323279 0.052588972554107286 -0.0845725595731113
1263 -0.06008557617628029 0.0635773381110591 -0.08376478988237929
1385 -0.05412791873480588 -0.07818031626673586 -0.04942882236714525
1120 -0.0845048337790208 0.03510131084923476 0.1280690247873621
1234 -0.003868459852881246 -0.12439038920592255 0.021725918164486407
688 -0.18931905290931847 0.06695567147915114 -0.025596933255406303
5856 0.18937096265653125 0.12038139600661997 0.000685340594553812
447 -0.061630344669022306 0.019886816252518726 -0.132160735893113
5663 0.17939440111192534 -0.0689220863487978 -0.020209183032789325
5028 0.03994378537992438 0.03796985355467693 0.19499123932204582
384 0.023233724887481322 -0.03330171141350872 -0.10714756589356711
5125 0.10340532389844863 -0.1302569527841517 0.06601038254908023
3297 0.01986284970188568 0.07110770427284058 0.049175855209257845
1217 -0.1401652702491441 -0.05072905473775276 -0.015466706450519476
4971 0.0029084488499024333 -0.007885231436543386 0.03657527645910845
1316 -0.11402728276914603 0.19556446776618694 -0.08030912799259404
380 0.07343685647366024 -0.07269928453264167 0.008882668998290889
5166 0.1687045193937219 -0.09362489943829554 0.01971095529553639
5324 -0.02239950484556318 -0.07770930540508451 -0.03416821270677846
1203 0.06841286641769473 0.02712048700620944 -0.0218477952040727
445 0.09410532063863594 0.00674598479056951 -0.1359366287126937
1162 -0.09095330065503948 -0.1494167540658428 -0.03765743240225222
1418 0.07129621511310136 -0.011783205675165708 -0.062396637092008614
5760 -0.15486578005772744 -0.01393979582195615 -0.03419573627870903
5764 0.27672246492971486 0.051602155567381035 -0.06280109996010784
4201 -0.05460069002624261 0.059209119260749496 0.015777719509644725
1448 0.033273272387605926 -0.10370449995084693 0.037256802153506526
5440 -0.13524072720580502 -0.10051335365485567 0.014592434163765428
1328 0.09797718104740125 0.09235228193394797 0.04941664617557537
549 -0.11960205090299286 -0.15091321659725113 0.0346660091004289
562 0.03161017109792158 0.13248915399191555 0.03706773887086523
4367 0.02569110765993947 -0.2051777938579722 0.04444362161172819
1278 -0.0834637815504596 -0.07661148197240028 -0.11704231177128288
1119 -0.05470669171886611 -0.07796715339033514 -0.0019201393402731026
1344 -0.014970163821135817 0.11359111541592563 0.041075098738251034
4643 0.11682818577049597 -0.18385641970873606 -0.06644084456588333
2079 0.11241970881520294 -0.04884046394831864 0.02786871291966564
575 -0.022902818121411178 -0.007556569739094066 -0.1181363086696739
6067 -0.011213830560536722 -0.10181517441491705 -0.05259267675212001
6097 -0.14079514339961885 0.23556355194457604 -0.13947937286611417
5281 0.055070568957091406 -0.04319319656575746 -0.0035022422917837664
5618 -0.00878232482453886 0.06818179858346099 0.0020910711249973526
4305 -0.08603369919493337 -0.026756305829281287 0.03650316652066445
4970 -0.12361174826475725 0.0025757414952201248 0.15664226246824375
4990 -0.040488762747016974 0.06895001073770625 -0.04877737833267033
5427 0.07102555612372119 -0.24124436483767248 -0.13448241298178099
4503 0.10994632194091952 -0.11350389691909624 0.07384415133563793
658 0.0424738619942807 -0.14875519011880836 -0.04068902999946946
1293 -0.15942867331452823 -0.005819963547611617 0.013475198521070077
1147 0.04603020092757879 0.040493292902065 0.017123674274439386
395 0.018832127543244155 0.03824743873166649 -0.023567075847777796
5850 0.08965969776122598 -0.1872801086056988 -0.1103976817574095
5874 0.06755258942976891 0.002181171515782912 0.14933489324923477
5545 0.030139964216764993 -0.012069036985201082 0.00028041870763579734
4832 0.17268107221902543 0.05835327718041578 -0.02093468057967049
5845 0.018355350759774833 -0.05473847001159665 -0.03891428713569474
3572 -0.08839506645267926 0.10092806264410392 0.23803129202596573
628 0.1098154922037845 0.11097985334574206 -0.027843520300395486
1396 -0.06887905701690415 -0.050290895700747296 0.08712711656785894
3795 0.2201130771378181 0.06541562576292667 0.058933079580358275
5217 0.07555422052873974 -0.021052441804412653 0.005399150482418739
638 0.146705768545065 -0.07192332211499214 -0.033299852587601764
4921 -0.040906270383370455 -0.094566725232276 -0.06650731504225008
1262 -0.14758632792991855 0.02475721994466997 0.153812360561903
2745 -0.12435923177628358 -0.02586753835033672 0.0727444901026576
1322 0.03953231553623161 -0.05569140590438722 0.011898401703223167
1164 -0.14152881963381664 -0.14763688232801597 0.009955617648612889
449 0.035207036136792304 0.006524177873098887 0.03431241140897326
1356 -0.08935512444028838 -0.19219238003248923 -0.11535665511024731
6168 0.14310280595567432 0.007483424148689542 0.0591982539882833
6032 0.025634035500725013 0.04424436087038967 -0.03416076736482896
5973 0.02770688467311211 -0.09997560886699756 0.19276109307833092
5335 -0.04956152506495591 -0.09517589757038601 0.08695694402421324
4203 -0.09577438394946114 0.010959620002039105 0.01927830647914875
5527 0.15808545534272792 0.04340604218799033 -0.06315371004941471
4494 0.11811910717465311 0.08638284942455147 0.053286638980016066
472 0.050705249838945254 0.10888842558491403 -0.09263472673975483
3300 0.1083728902420943 0.024888692444503726 0.0391808085243017
3820 0.11967526362098257 -0.16304133754681843 0.044455818474938485
1388 -0.0008115344844294393 0.019148431188185225 0.15065698430974728
1254 -0.05921618941595274 0.10986642266388975 0.05862613594517445
5191 0.0076271581975165415 0.022879534358069862 0.2206187553308771
2124 0.013889882369267404 -0.13664880662618256 -0.01195256179876651
1301 -0.028002278293635625 -0.01106205386423685 -0.1022123712029225
1133 0.035698648828537606 0.05574669099329928 -0.16489582148419527
1193 -0.015088942426209614 0.04181228757600037 -0.19869867868350974
521 -0.017596310078221208 -0.05498598002869408 -0.0795017665980047
5810 0.0453055119033972 -0.18211553170287903 -0.062369667833909306
5348 0.1472728082407889 -0.11265961473680516 0.1786919204910701
5932 -0.06236223052940679 -0.0680615754701855 0.06311435895294384
1103 0.05171490518062845 -0.005249570776110164 -0.14524549158502575
4916 0.12375295634238281 -0.07785052872161811 -0.24781632148601562
4301 -0.01498328560842712 -0.0041211859942031775 0.07979317059803853
1136 0.047430531942795624 -0.007065892330402557 -0.04561350899115863
1307 -0.0011263601182670696 -0.18190769525848388 -0.03094964284864233
5129 -0.1377725794067906 -0.05097488009813037 0.09640421489516422
626 -0.16541764594241776 0.04851682839043317 -0.1410012094436642
4809 0.08793260604177078 0.11267334001333296 0.021101752377833898
2709 -0.040917736186923064 -0.06297115147377191 0.16774074232019606
2156 0.13347559456242195 -0.039047090829567976 0.017463020322388258
5042 -0.12514072074386293 0.07370820664834588 0.07157580478112072
1340 0.10885764948720249 -0.0039019302604743275 0.09924715331360444
1464 -0.05988581092663152 -0.08441263879956418 -0.08940763654905494
5976 0.009239440639741005 -0.009930285221018527 -0.0019902462343449542
5759 -0.06998100185572986 0.01384406696103627 -0.1063402731418102
5844 -0.09901321676933311 -0.024331930324580607 0.06072806453344742
5590 0.05931472560499791 -0.13391779849220606 -0.07977932871421822
5321 0.03582891397808881 -0.12214181254672106 0.11144781726421235
5510 0.10126819279286256 0.0139844160969494 -0.11784181301545718
5567 0.04611585140836931 -0.10606266460185587 0.005736288553637404
5525 -0.0374284922158994 -0.14611937985895182 0.15373232590945
4140 0.10637053194380641 0.07600044370667935 -0.02839902736076991
5389 0.0028234952416824333 0.12677125828618707 0.17235556211052278
1180 -0.016517160786059585 -0.0795238308967765 -0.06016008467746769
3270 0.0005547759684957076 -0.01447710521992146 -0.00906957080046207
4300 -0.019923207820633938 -0.21262599928044867 0.011154940572555986
388 -0.06773451365776384 -0.024500854822379115 -0.0814676308412278
1312 -0.19881948806779026 0.0338327350051436 0.01878495789248852
2446 0.07106900974057473 -0.03358491115049282 -0.04990852715176569
5131 0.15626613401892755 -0.08693246208460936 0.01186379323369831
5997 -0.08312345248368716 -0.18472255275466262 0.016295818429387723
5690 0.007197696243249748 -0.0946297431410685 0.15183790550094206
5834 0.05944105258752111 0.14903999581145208 0.03070639297156418
596 -0.06750351353896711 0.14374804504026745 0.17299501383262864
5315 0.13801549008334446 0.03144626023006962 0.0024440878789841252
5290 -0.3340057330110199 -0.011996786291123437 0.04836845001220718
533 0.08587662120786459 0.11748513320219343 -0.13972487193319205
5070 0.06259317787474789 0.17452975923782735 0.10471985571294481
2838 0.0632115581413119 -0.027319475234236983 -0.04401638856018303
1389 0.14942709761914763 0.04897487452732907 -0.15966209571169382
446 0.14957026883233226 -0.0707663359736887 0.024839516518764312
2779 -0.23385076124791257 -0.12373411463698564 0.09989955976942459
621 -0.04938912666370854 -0.23305225719993483 0.09506922035914966
602 0.06079107470013794 -0.04172256125827332 -0.027158357189790913
326 -0.01729023776697872 -0.10964435848892015 -0.1031397970423258
325 -0.10083187339731908 -0.08187041761220713 0.14747811242881498
5821 0.09841410083149252 -0.015673934891982256 -0.1449385462510711
5797 -0.15134659982201493 0.015670183020240428 -0.03280043512461378
5403 -0.05247571053937573 -0.15590039641594605 -0.05353554826805583
3695 -0.0691775577570127 0.13352399872023915 -0.06519303531116727
4395 0.05398574356528494 -0.14191156248219935 -0.047133026566125336
4080 -0.03945603155255002 -0.010924359840846198 -0.034609259155645965
2718 -0.028054510089994416 0.05899763799667491 -0.05474108999658764
2786 0.056871269631472515 -0.10304697516263026 -0.030767388087561208
370 -0.05032549166358638 -0.07714460381718734 0.05498268489944454
2695 0.06918283085155796 -0.057392903072411044 0.039481570546421305
2584 -0.026174358778043427 -0.08716657131552041 0.02477963812088496
2114 -0.029804316537554387 -0.03285229629274229 0.060368189241880144
1304 -0.06478237391718446 0.0887527182440445 -0.0014162679406790266
5716 -0.0016104084963637771 0.12877885206309297 0.08046078510991152
5325 0.06842995737237577 0.09445674201006121 0.025201510433665707
5594 0.018778772985612986 -0.08385467543537208 -0.06148343497103549
3566 0.09724719895846748 0.03708265033087134 -0.05293519674275119
4839 -0.03323113719989661 -0.025637817151251026 -0.07926702541197256
5320 0.002252453701192866 -0.05280152163990459 -0.002163327374455605
4547 0.09426219534992838 0.021899032886472682 0.09903642267364698
1994 -0.021125404070613203 0.14380987707537293 0.03177764322174753
4493 -0.0567354493833248 0.006733358769199553 -0.01606044776318057
5048 -0.085807853277653 -0.10322554118420894 0.025503986015824275
4778 0.13509075945563997 0.103082573114614 0.11130186213395805
2727 -0.10553524636765016 0.11599258306414954 -0.12228525242097635
2562 0.0028902550097105496 -0.0925139508801616 -0.024942612968816332
2693 0.05992576962645479 0.008830221522397194 -0.0953875888303134
2869 -0.09657429131870622 0.11791824144453811 -0.05736862298545518
2617 -0.1247437639762769 0.05576889827619735 -0.02235904295011704
2720 -0.026290048252461565 -0.1379409721435727 -0.06486155068856972
6073 -0.041694343361758285 -0.10232161774212888 -0.07776888636954571
6112 -0.11223412310111273 -0.14884135712484653 -0.00043223256086383915
5993 0.06657388720513048 -0.07188977888155373 0.08626759915904665
5950 0.031180475903742216 0.03292636542842311 -0.023638488418587414
3464 -0.004636200914189166 -0.08736001684352364 -0.16436345210787448
5698 -0.03404302075252837 -0.04477205593673393 0.11794431295982938
3416 0.07171129436731273 0.11163550941469572 0.07567436493383127
2014 0.0358105302019771 0.013912889261709131 -0.03034245903698812
4747 -0.04083740503955612 0.01896396443530788 -0.07731541824591463
5382 -0.11169233692172455 -0.0694144938162877 0.07948882652666105
2874 0.07715648013481212 -0.012650374677783287 -0.0006251935817950631
5194 -0.13666677227484328 -0.1927818445953289 0.06426158047130896
2881 0.14741771910408608 -0.03548381725560103 0.05296475353466833
1134 -0.04739473233474556 0.07431171512454812 -0.17739399466703437
1968 -0.029650846372418896 0.03341936503701386 -0.03191671692346684
2768 0.12923789978835332 0.04700820333102086 0.016505631624419006
6027 -0.04616423415423493 0.08882456103637526 -0.021408074726156422
5905 0.053572189004543525 -0.09872449988730936 0.03917552038304392
5417 0.09830584245587655 -0.10897773845654515 0.12158533653620442
5875 0.2326295060280899 -0.025653385893623447 -0.05733455378571084
5544 -0.17623980459540603 0.007347878141334377 0.06025119570544516
5114 -0.001156061885164674 -0.0389150296863442 -0.05349376434313284
5408 0.18004428715118379 0.12069419334253752 0.11410369540488194
5340 0.09657411244886233 0.030311179191118358 -0.03776351398632912
2082 -0.022156804668536707 -0.08678040961141745 0.06294836875903559
1954 0.2238218040860619 0.1016725845805226 0.056401016849144815
2619 -0.049561427386985726 0.06927449554225867 0.14308174089026277
4812 -0.0986164183630718 0.06496000905527127 -0.03707624853599282
618 0.06342761925395975 0.044178661667893686 -0.03624872929835679
2767 0.11027175130827638 0.09369596421194429 0.022334365758673348
2047 0.048934613416156264 -0.10744512122692658 0.13029077513871207
5689 0.05601521133134099 0.08627317779570778 0.09552160097864772
5855 -0.048144825268912235 -0.01952170903102102 -0.10493534959782885
5753 -0.032377631997336585 -0.06830178913950387 -0.09891931444084028
5929 -0.039469989011975515 0.07108032066196679 0.008681312423058002
5587 -0.1562032035057993 0.006547161724292986 0.0699348018027527
4946 -0.011831906091437815 0.0027063616271551707 0.010391812819811233
5437 -0.05144792413932421 0.014997691430420656 -0.020045606117965287
5579 0.073304509769312 0.06604104731726773 -0.008244643779595981
3901 -0.060450851900789394 0.0205261206994789 0.01903168517007641
5465 -0.007799503668716002 0.07454856502328679 -0.023988129947195295
5504 -0.03655726577929118 -0.08317349694630014 0.01769623795764808
1111 0.1076359364549023 0.07356285340920146 0.18998157402875018
2723 -0.04680688829032552 -0.03485762359444271 0.10216514152051677
5008 -0.03758338239544078 -0.03168818111190688 0.10622511522814235
4141 0.05246715692989584 0.031532614361595976 -0.06467986486686053
2055 -0.05992032174725718 -0.028781986518195968 -0.017516613729134826
2685 -0.005890227750321688 -0.050556451613674266 0.0675948958798718
6158 -0.025393189272985707 -0.020955027908076584 0.14510897136881273
5870 -0.07088597016972811 0.02786650971568868 0.07328324084268303
6058 0.1708602559283042 -0.05221828917394948 -0.01467928986529735
5516 -0.09963291874679914 -0.019322722216905435 0.18841519772921225
5546 0.12624436043855583 -0.14337380166631286 -0.17851385579437662
5430 -0.2930255592984607 -0.037941027966506134 0.03967265799273009
5860 0.07538231629538814 -0.08972394422338008 -0.1006707284940222
5576 -0.10646890033155079 0.047488444951526945 0.07546122138961998
3599 -0.13262742572998085 0.24529035031116095 0.0656597777796082
1884 0.13308442740243903 -0.012357848539425807 0.056792690391507555
2142 -0.04139421670461932 0.08704286147835921 -0.059932128199815825
2792 0.05260848733083315 -0.10196566886028714 -0.011020451381171413
2855 0.08934296320065799 -0.05741851687869824 -0.13723553610957526
1845 0.009573250671736214 -0.16823823408803826 -0.05973493941703325
5505 -0.053737483092534094 0.007383412847208667 -0.08697448314762468
6188 -0.009758355234079214 -0.1611255536365189 0.1011951852542122
5840 0.020203432051392876 -0.08718124025706579 -0.08842834506411676
5299 -0.08240861140356692 0.001986898485986481 -0.045678907195336745
4196 -0.07336882970403157 -0.04371301014960897 -0.018738334501362072
5245 0.04177564456811918 -0.11979084021144726 0.08561861409929879
3563 -0.05816878163577738 -0.04787174386458956 -0.14154132724212826
5139 -0.0567115022966103 -0.044165189414529536 -0.17100022390800212
4551 0.014145611796015548 0.06788000632446166 0.01296645293620827
4199 -0.06703952218522788 -0.11048479575435961 -0.11630526287919693
2870 -0.012384666801783364 -0.12005196635919665 0.036684758715105514
2862 0.03504875961026285 -0.04874891244352986 0.04489720261664386
5126 -0.029875118711657135 0.11323599200236471 0.009277288656207416
5300 -0.07343784237676189 -0.037213964132632955 0.11300648944360196
2699 0.03421586817298213 -0.06375949703531839 0.022688338591477834
2614 0.10268118208239203 -0.11984457592185792 0.13782342863011054
5933 0.11741002942010316 -0.012022958459091862 -0.1995924965542216
6080 -0.05678755348012909 -0.03238064391533517 -0.04011343320364068
5469 0.03837403999046034 -0.11874471197349104 0.03823864386406248
5120 -0.12610913623031103 -0.005481373634410071 -0.022172158309311015
5867 0.09145729565803128 -0.016423519600287848 -0.03228323852128147
3883 0.09104146451170217 -0.05881408752417821 -0.11993557553219784
4993 0.05645974838730516 -0.14477002974365052 0.050260450001791614
4254 0.031628554633648956 -0.09493355203167071 -0.04539639135972896
5303 0.16445546696214575 -0.016032668991665982 -0.13284874217533052
2561 -0.07454947954102631 -0.018625345576144415 0.03576268770719038
5473 -0.17812576864311988 0.15875592529632357 0.07179736893142717
2840 0.045683584079719466 -0.046735299645750426 0.015579844907831994
2909 0.12485477008012609 0.01258473860293663 0.0708047776952671
2065 -0.007529503057969347 0.05284704442819828 0.1090054252308325
5694 0.10324475593052519 -0.12988751373368726 0.16074592925657802
6094 0.04362991865834131 -0.017862794301904454 -0.04437683973007032
5550 0.015695065782493307 0.057412801674351276 0.005122912641622663
5660 0.019710980127403657 -0.025783783820148752 -0.09983103971969014
3983 0.03239710045175806 0.09174948646959263 0.06805279939514614
3802 0.08059496723281187 -0.02319996953880799 0.02202077337140294
5454 -0.023848939051795272 -0.10655339246517774 0.15057098187708937
6019 0.01716122349967671 -0.02698831510452624 -0.16321565042101116
1883 -0.09791922138232984 0.08507110906923061 -0.06325653151264488
2007 -0.04367484078066741 -0.08453975526321658 -0.04737035920631759
2688 -0.0905366531496364 -0.030588392940703223 0.02713063129847207
1872 0.1627896544751848 0.21426806035195145 -0.021293645562401445
2136 -0.016484978044494166 -0.17075785388482134 -1.8016589470796e-05
2045 -0.028345515374229642 -0.00908230311028248 -0.03144762985202875
2706 -0.04914628343374876 -0.05520939265198818 0.03534920762276339
6166 0.014919048478433504 -0.08684376639647301 0.06856963918194289
6254 -0.1292152748379979 0.0959957051381893 0.13277367632090548
6008 -0.03137634454597982 0.12951342423070936 0.03977010192178095
5464 0.06165054836549412 -0.11119324523716068 0.05751575494277267
6152 -0.11689043178836984 -0.019971964254290507 0.08159442110055112
5926 -0.11396579097635277 -0.19884938301241153 -0.002764666130258421
5704 -0.06648328506777695 -0.05570242781211278 -0.04985067725264622
5485 -0.11868132751419694 -0.023224691595312433 -0.0653502957703646
4983 0.01847833635035742 0.01443534340195915 0.11005104268990969
4702 0.11053820195055579 -0.19063996823383353 -0.051767925625448054
4142 0.07447779908452573 -0.22702966720228973 -0.10549519141472946
5118 -0.11299178976781596 -0.12849916470927705 0.1251174004727457
2873 0.00932879737415194 -0.09236798468300839 -0.035624650521948076
2570 -0.0531686244701608 0.005950039440524883 0.11252902106820659
6091 0.022629039931219442 0.14452410697692497 -0.08988059596299648
6028 -0.19556159106339868 0.051205235023851256 0.15507497840008794
5599 0.0022466418762639648 0.08154282634559 -0.04722546184572046
5758 0.0424129429310241 -0.04662561608790797 0.03105772926485878
5699 0.16560769229855896 -0.005987822595543714 0.0024612825761204096
4398 -0.023057440347739034 -0.11938384924967693 -0.15385031344356168
4773 0.04989053271347534 0.06036183338977467 -0.0954479618207716
5207 0.08385732237136265 -0.1665584447966358 0.13925425822565254
3591 -0.11120149167584108 0.0063763518930787366 -0.02361759561756881
3604 0.07919402181664098 -0.17243209056189718 -0.07777218045855043
4794 -0.04363229359975253 0.08006222292414353 0.0499843243931116
1878 -0.13563709003012783 -0.09920153582506294 0.017288051525643305
2764 0.16774710596457487 0.1451416648083258 0.09508273017826685
2858 0.09511199474034532 0.13438463684902374 0.23453385301450458
2140 0.12307397731694567 0.00455901640588233 0.050939249404078214
6071 -0.012369267379989118 0.13195574420345038 0.09239062307607829
5741 -0.15106799298423587 -0.11533415543911742 0.047172662385462735
5595 0.06950153057809798 0.025062273210535897 -0.02897592027101247
5878 -0.022051972511714587 0.0062072120399422805 -0.10475165618648333
6147 -1.665690502642217e-05 -0.040222848280544565 -0.014165522067606759
3702 -0.1309628319632496 -0.19589205285905176 0.07081012003217976
4502 0.16788223508128114 0.011561750080705153 0.1273629163521189
3922 0.0704095252465408 -0.04279362771565097 0.06523642741835126
5068 -0.0689084798649798 -0.03975958344598417 -0.09082919862990363
2735 0.014885661014066364 -0.09878899059157406 0.02479270461103259
2849 -0.010851226773723865 -0.04181738911250117 0.06111469318506528
5442 -0.11773589536426135 0.05998446576043984 -0.05598867317642062
2770 -0.011803613847117918 0.01496194775408931 0.009464739603485062
2782 -0.03839502445257852 0.04771657310413785 0.03743463721024913
1898 0.19135503646532234 -0.070273627365866 0.023761993163126896
2659 0.11350378141496821 -0.0503463699491724 0.164887308409498
2575 -0.07346205525731686 0.10255295788177043 -0.09050505414579661
4299 -0.04600524626873536 -0.2554590272030518 -0.092992246724443
6227 0.05382540633760986 -0.14869318707393386 -0.07620814333212066
5443 0.012542256629899102 0.025627540887294048 0.08800398668328938
5593 0.11616112017054775 -0.12642268995323142 0.107529081784034
5632 -0.10326190002163554 -0.17112591291018983 0.08087622941289542
5598 -0.025289887188845138 0.09429408946187315 0.11409096273356566
2571 -0.01675545521366914 0.019092500823870658 0.12588277029789754
5350 -0.13534111749109146 -0.06392587519309532 0.1350117462132928
2107 -0.007190057024028036 0.012868618669286454 0.006358470134156441
5182 0.03066898809678126 -0.06896835972788366 -0.009715575272956776
5628 -0.08334327951151552 0.01940740226258049 -0.029715115616011617
3804 -0.08207044759886534 -0.0068725905112277715 -0.009629028539598513
2176 0.028892515683046766 0.09513005732965402 0.10536080399862616
5002 -0.06525610387928457 -0.0688324025948186 -0.08994189641185595
2910 0.07530816246013372 0.037792661014620144 0.10765696005077409
2819 0.14909852857435926 0.05783951836284995 -0.16586584254171177
2106 0.021496764270486857 -0.03588425089345483 0.028573637880759208
2187 -0.03707954220979839 -0.10915423382248278 -0.08330036017324144
5847 -0.03819589861813992 -0.057918933882012365 0.1030895228312295
5709 0.07489626914579002 0.1096168900324638 -0.010188150134228496
3332 0.11978017223038773 -0.028459947352465757 0.05428718454395081
5558 -0.043016727965840315 -0.06747842707427157 0.07410524551469966
5391 -0.15984278973094626 0.013480484582955733 0.04196523288369848
5167 0.07289479945774519 0.08652691368945359 0.08218035921419839
5766 0.08998249744947455 -0.139497620503089 -0.07225983806997256
2836 -0.07672594294545992 -0.04595462287902692 -0.05871340701439989
2653 0.029999421520354654 -0.025114132332355328 0.07711562546171025
2783 0.08965021193892828 0.1068476870424683 0.06759914760884896
2811 0.17527233403186068 -0.0763979226571914 -0.05913558068420843
2899 -0.06187166321326126 -0.09410422706164101 0.006016973762684232
2777 0.20332963852856906 -0.001055825544931113 0.044193959938579636
2117 0.032126960583672155 -0.0633504610285666 0.05020507773567489
5888 0.030652210665549823 -0.05106301692954785 -0.06940895421590179
6160 0.06615518491445052 -0.03266774922725427 0.05125926218404463
5597 -0.08789617666286784 -0.05442115962167043 0.14744534323505873
5830 0.0049337335876646635 -0.11447172517396541 0.09553859999499996
5835 0.06199245156417747 0.01688035981213832 0.0988552944991189
3925 0.08518930888467673 -0.013318656480798698 0.03158619311893157
2810 -0.06775073178668561 -0.045357427612265015 -0.0026666937170949177
1946 0.07191009456425217 0.0524483439842065 -0.0675570533451893
2796 0.03190043160247444 0.001044683031128933 0.12812579700432605
1985 -0.0038425846324817922 0.0023793452523937237 0.00919121713860515
2581 -0.04675270582880853 0.0991952316747074 -0.004600843080401505
3700 -0.03847509817635768 0.1044894134470526 -0.13460557642169213
2050 -0.0017007921266978443 0.0021071103848099744 -0.05643078403465575
2776 -0.03823228110367631 -0.008222467910774856 -0.0020321996408601637
1854 -0.03213803303741588 -0.07686384383601179 -0.09829916002718567
2728 0.022999168085141238 0.02938695349294433 0.19794588731760912
2769 -0.039415565135427974 0.16472427053728023 0.09625687224962982
5836 -0.12643186780212215 0.06705758940748928 -0.16475566148127613
5828 0.04134456224099659 -0.05474491891823058 0.005435688688734151
5368 0.013383703292197423 -0.06624508283553965 -0.06434475379749668
3291 -0.12198511963752415 -0.05820220456821399 -0.04639460502088861
4523 -0.1937205732012229 0.036584044866207935 0.15286910733189504
3283 -0.05402683902685977 0.002876737485217661 0.11397479408749046
5202 -0.05800067028068853 0.006176355283193309 0.06531663391761905
5603 0.030576844908796703 -0.09064353993826448 0.09266715518990369
3429 -0.009477587745242311 0.014177926976502567 -0.12364155518092926
2033 0.2071483813923718 -0.03039018108377681 -0.13564381511095516
4968 0.03759615758021317 0.016447740885337046 0.1888930103796322
1828 0.007635310146384935 -0.08551325437016823 0.051692906592081575
5159 -0.07287115396097903 0.0002803244387926049 0.0200121167393467
2073 -0.016351507928967144 -0.0031671190256488597 0.15880923452528267
2748 -0.0113391659678189 0.00705474572672231 0.14764024473810847
1960 0.017790638939876854 -0.22893430707391826 0.04296313686051014
5901 -0.07293567951304045 0.01645218512961695 0.0056806506817466025
5930 -0.06998518219838165 -0.05266592632643976 -0.11168512152468317
5548 -0.10360068030092139 0.03895706132909461 -0.00566276540726952
5607 0.14071892951816467 0.032855729122304174 0.09264311403381036
5606 0.013445403429908744 -0.03445931083270501 0.00597384780517277
4910 -0.0680433393973729 -0.09006796402341503 0.14152380287163802
4907 -0.11739277367458564 0.07760984879495879 0.0038256663954964777
4528 -0.054751757684051876 -0.09156164803845607 0.004234077821292118
2863 -0.19765119727962555 0.031248798680824193 0.18616304136620623
1943 -0.007243833435885742 0.022332962552949115 0.031821085206845415
2112 -0.134823081131629 -0.03981013378748648 0.05754333449189018
2173 0.04708653362396918 -0.020697110569493152 0.10311149190204216
2806 -0.0564755275917422 0.04708405887546431 0.2108596980857718
2627 -0.1007347333519629 -0.1288033684842702 -0.09206372502401888
6231 -0.05328164793094004 -0.11336952796766729 -0.10612686350927343
6074 -0.03590214058833353 -0.11174435664924046 0.12231451110408292
5780 0.1089668146818966 -0.08018320166654644 0.14566743935998377
5643 -0.02910241912931817 -0.029835268188424698 -0.11519331133700146
5981 0.17926081654309967 0.034730239918824374 0.12746003709374437
5287 -0.10471256318819248 0.09214633269641845 0.02408115165647767
6229 0.04383998134524109 -0.06775806621818245 -0.11323108833941742
4473 0.06216982494047346 -0.0914039958524584 0.005978236574197365
3470 -0.017017562680975172 -0.025158315417825323 -0.003144811214675091
2654 -0.008414326180192309 -0.09914505254545682 0.048864767195397965
2893 0.07559394448934341 -0.06241168887269733 -0.052720627829121555
2074 -0.12609745349029094 -0.0884097597081431 -0.10675272039739758
2012 0.03699707062263992 -0.0697614971298035 0.18723718135081915
2563 -0.008346233299873315 -0.16780406207110474 -0.13666961968229663
4923 -0.09327902872426147 -0.11772535755507732 -0.039737888172619376
1836 0.12274774934261762 0.0567149651180467 0.001293546108789921
2613 -0.2067090632757194 -0.012512513390403358 -0.05693294531176185
5450 0.015323696286560006 0.06981946709968319 -0.05645761583871686
5743 -0.06688190460228857 0.059601881811925876 -0.023887352089459052
5802 0.012897142755817853 -0.04152737172994819 0.06261658543164494
2043 -0.19633358413386182 0.07897122012422793 -0.06033827932790373
4988 0.015372334451412301 0.10668235715637917 0.18741307934628698
4555 0.129062640063654 0.051166865415158094 0.03505166810926229
2905 0.04051677900770775 0.06633213403939328 0.04709238097341767
5077 -0.007782586148820377 -0.03233092963839993 -0.016609038591899467
5005 -0.08618734561081559 -0.18177660560830644 0.055573696460145025
1892 0.23582350719385795 0.06174898913191495 0.08465144926467878
1996 0.19696230279705532 0.004610933201486367 0.0618713241362862
2705 0.1521382810949386 -0.09107285095087 0.042610354520602134
2887 -0.14905999279252408 -0.07464549535909822 -0.048259789987140436
5831 0.06532865608780254 0.0442842214787947 0.01952417257541301
5803 -0.002326987503203315 -0.02687348246462494 0.016664700152205395
5817 -0.032317285579231955 -0.1692881426650586 0.10962285005269827
5638 -0.1983382343756902 -0.003810758068420858 -0.042223733528952
5414 -0.04647221047558042 0.034392816142869084 0.07958542273847719
5559 -0.023761117970919794 0.03729521123292945 0.14533244521126437
5415 -0.101285060337754 -0.1390876367058532 -0.010461843883912907
4366 0.04765020462143235 -0.03373732003691328 0.022642751763008298
4774 -0.022634417398431982 -0.045807180871148684 0.053106382032111474
2902 -0.0665915450596762 0.07230156581961013 0.020624841636001902
2736 -0.10295626625173993 -0.011328139061697577 -0.10697946421502659
5127 -0.04876170042694184 -0.05383509055196922 0.1401702965513608
2843 0.08150454249794409 0.007459066792049496 -0.12827988896229764
2101 0.10066643154131624 -0.05042090808718851 0.018174801939547403
2077 -0.006604510663431262 -0.007909795748339062 0.045697906952351305
2761 0.10795010148537199 -0.13016916910658144 -0.1518570489371464
2833 0.018288783243007437 -0.09695228961676025 0.0849632387958538
2807 0.1723188029720334 0.01414589489343085 0.00543446840083666
5832 0.11883181912789191 -0.19875098336674157 0.004978998839886284
5892 -0.03349848793682288 -0.19862798837269127 0.05234508696134176
5693 0.03739534074081384 0.06502170685046818 -0.04349435631910237
5899 0.19112979273879374 -0.04609555533930049 -0.10439897179985458
5484 -0.07648276281359828 0.07441444012448092 0.01472139866412155
4841 -0.008191642468077983 -0.08572021716189474 -0.015428275742278879
4956 -0.17763029399008168 0.019506036582614322 0.0653363978659182
5551 -0.05508645621008723 0.05814148742427655 0.04236459597869137
5370 0.10123142069134901 0.001820409675815697 -0.018269550199380587
3714 0.04243749686445455 0.0105805860243404 0.015158939164731045
5137 0.01469070853578306 -0.0396276118118031 0.08000291328356887
1987 -0.03308787656346422 0.006598660798351148 -0.028869680045890543
5026 -0.18565104004231253 -0.0660365878292337 0.02644561644579758
2028 -0.0405002956797565 0.08267134063977395 0.0680042291376409
5109 -0.10926873501438095 0.0521265597931413 0.09576503427381262
1963 -0.0179106986680043 0.07006878581025841 0.1536239217786491
2109 0.06730289789506548 -0.008374689441975069 0.07655744045727444
5019 0.22119769215271873 -0.09412242404876298 0.18293627294084544
6096 0.045868926658304214 -0.08081974361961211 -0.07345297472473611
5737 -0.06629910066314988 -0.12759300379006522 0.14407460304197436
5577 0.04821152094527261 0.10789759075273417 0.2118555872790974
5453 -0.08270753617323218 -0.12649602792322662 0.09586604012209649
6065 0.05069177447181305 0.0698827242623456 -0.0030630654870776666
5261 -0.045321474834120745 -0.010011828521163571 -0.031226925332169798
5535 0.04417950880084081 -0.0317412007966997 -0.143447299877581
3984 0.10795074263760278 -0.0759657776296732 -0.1011582854700003
5251 0.044739974891909284 -0.005036532179866649 -0.03617676527299609
5205 -0.022941784119992075 0.03962460590873844 0.03538528420989684
651 0.1911937203751372 -0.09978980285209056 0.09414750898897427
4206 0.15658630041899746 -0.06984856298492507 0.12382445200930098
2743 0.11566959729373621 0.13242783387480017 0.02869771700786454
2784 0.02527061301499481 0.004644137246317719 0.008289307842930554
2118 0.03329057871115815 0.053446133373995494 -0.05259183787701534
2037 0.03782484956877173 -0.079708079636361 -0.13378030483278114
5799 0.1921345860999914 -0.03540669056353753 -0.1559179659900225
6115 -0.05290620871665039 0.02006588055490223 -0.15435134254322105
5402 0.09497614707545067 0.12873909909322642 0.09490346470158373
5822 -0.03898684820512052 -0.008964448191725725 -0.021279333228393878
5549 0.04450397442894531 -0.10920154189908582 -0.2095707353779547
5767 -0.03336399199493977 0.11153168385906352 -0.1176752018489931
3338 -0.07371919128881264 0.08513720068759674 0.19996050786052694
5316 0.15306565549996387 -0.07531364361132424 0.1371566437380502
4005 0.08615512174658124 0.04711765805940493 0.06677581386892739
2732 -0.011028934667420363 -0.052927419697438166 -0.055753158770462254
1841 -0.048270464240196466 -0.017135113507652098 0.17369468218763096
2113 0.025641828003374622 -0.11008402112004786 0.1606452842472475
1829 -0.004251706858927206 -0.09730404675177529 -0.04310144036040601
552 -0.08468080096012125 -0.005385110027706077 -0.07038108747231901
2908 0.1341531547998503 0.04963777336927485 0.1283256599595732
2872 0.047119075089817844 -0.14542770116184214 -0.143965073678281
630 -0.021514428226034117 0.04208224474195462 0.10588713873266578
6145 -0.10664908093410486 -0.08513692241143493 -0.02225656303752521
6159 0.12774817869117444 -0.01868329554637577 -0.02781920744782145
5491 -0.03640242057513065 0.018549197990293226 0.08596385515313569
5809 0.19315724609743062 0.06471666365953867 -0.04676390323045139
4011 0.18374407065886003 -0.061068280521368486 -0.03985830130225636
5380 -0.07101923012778442 -0.16475143337941378 0.03388782147603721
4088 0.01517838118821702 0.04945445367868103 0.07787500193253896
4319 -0.06779864689519217 -0.1375163919324024 -0.0023927024270898115
2775 -0.11879276444136527 -0.03781351714313314 0.00969560742218777
4937 -0.0952189073990628 -0.25045298725662135 0.15580299635457356
2669 0.07880245109091051 0.03151165168014851 0.10466107554096456
1821 0.1325289353410051 -0.15557465215769878 -0.09419594929051331
5235 0.00741885168366288 0.03633220998969294 0.035519948212839936
1422 -0.018034309024382644 0.1105947792553448 0.07493702504526409
2058 -0.012828121664925514 -0.16016603543443256 -0.024112250460378678
5811 0.14555665827651604 0.29047475112251037 0.13279860022116347
6029 0.11935727485072509 -0.19458162005130403 0.1779060298672705
5739 -0.03383699813523731 0.07548188881283453 0.0883144985639096
5562 -0.1380768850380011 0.057281724586768654 0.04470507354633082
5609 0.10814735630316305 0.05847300357801466 -0.0233374754006932
4998 -0.09433399848888241 0.013507583415831581 0.07676074898830235
5383 0.02751875554603299 0.1182050153390807 -0.04184344290318551
3327 -0.002447755248543994 -0.036424378058563904 -0.04222854382552368
5014 -0.06265970491583295 0.03138854415502392 0.01891542958784021
2569 -0.07083895357090336 -0.06585530734983129 -0.11647168109004294
2765 -0.0008192339002556816 -0.08123614033697416 0.014703373634868261
1999 -0.11772426511033005 -0.035459942754904036 -0.05978260569133818
2137 0.0003913836842512654 0.04602133890818518 0.08976323293268128
1899 -0.07745808474412592 -0.04179484044596307 0.028368889228211232
6093 0.03921969879754523 0.015146476507406258 0.08622798054766892
6208 -0.00919367403068293 0.12142182120498583 0.12986206653043394
5728 0.09157445827732508 -0.0012063108758433218 -0.07552153599139926
5571 0.05463852579759944 -0.09914553611549587 0.013954191437770772
5854 0.1030428147637913 -0.019046649482987194 -0.07583558587199822
4210 -0.126320810684107 -0.05668418710248803 0.1398556070718934
4249 0.0554541719760263 0.011573427813872713 -0.020022887233063152
4189 -0.08472587028517164 -0.08066461496835516 -0.06258489664522994
1273 0.06733654950031169 0.1366101152800539 -0.2209558717399268
4463 0.0961784883884633 -0.12029780881567098 -0.08189268096720057
3986 -0.03151887486231174 -0.0866969598956088 0.09835733604845721
3990 -0.08840300892799473 0.09012717553101328 -0.03587597916369104
423 0.12481365291104977 0.007379147913142604 0.08548049436081918
1441 -0.010771545356351882 0.08851120106961098 -0.10136768897405198
500 0.15887981581837962 -0.040702791574357994 0.16379798190668016
2708 -0.12205328683574174 -0.11400284033068048 0.07573112686638386
711 0.13352634329051952 0.07496380873671948 0.028483583822679324
5864 0.1346940202740961 -0.10831155627828079 0.11324269973857537
5617 0.04712322395856619 -0.047372783580307935 -0.09096060107788313
5666 0.026929386782995574 0.14784989268169496 0.03326185330240521
5520 -0.06362385811847447 0.07322028030231752 0.013230080096876009
3292 0.040275128706430234 0.06836878984256575 -0.05197106214859064
3426 -0.025247935342599642 -0.1711761058138787 0.03863745793556342
5301 -0.06881644791876702 -0.08803906508991036 -0.020104242686527662
3826 0.044222006713804565 -0.004856382478224702 -0.05733495226164534
4434 -0.01827422494461009 0.04347265099231089 -0.0695959436515867
4083 0.057196943729481316 -0.07905653483715032 0.013055738619297756
3329 0.07011930933670696 0.033061846045033136 0.006921711478276901
1252 0.14865233240394693 0.057671000788276465 0.03284747199009627
608 0.10596658530915734 0.03531972910062425 -0.09310372172859704
703 0.007158558305405162 -0.03532273762541083 -0.05140215542128133
374 -0.1455772050996122 -0.11239776844033728 -0.1086907023963785
5992 0.0452124294864302 -0.09528832999380567 -0.02797984662856272
5738 0.1401871851458375 -0.02141830379138663 -0.11197383127376646
5838 0.018794836159841365 -0.08324507434981686 0.1285903959702667
5374 -0.07387637063257556 0.14377626636183924 0.09101231411101426
5580 0.03190807487655163 -0.036621663518439256 0.14040035543137272
6023 -0.016657937449823274 0.017704094493160325 -0.01625193030948665
5419 0.019168774295448582 -0.08098390601758854 -0.14177230763604812
3788 -0.08273364682161558 0.1110048539231981 -0.14877522527348697
1375 -0.033666916562359483 0.010584745177128933 0.07146508508828309
515 0.06966603392925111 -0.15324156847895679 -0.02187775986908959
4903 0.1286958796384305 0.06813588187559072 -0.15043108220315596
689 0.044430081383967285 0.06586495982192635 -0.16715743501302455
737 -0.0005609104103382811 -0.045738719940198194 -0.031342793962161976
1118 -0.038294947985263665 -0.0399796000021148 -0.13198258141919336
6100 0.01416878206164375 -0.04365655337618199 -0.07636474439983948
5613 -0.0271687404497781 -0.001010298900224929 0.0025711902490671602
5882 0.12060199099710392 0.010751186280246544 -0.0792981080039025
5586 -0.12215172767159438 0.15808414037474455 0.07122971910286782
5629 -0.00310772350168635 -0.07754023343977504 -0.05994831359601849
5274 -0.07172613017223754 0.06459413330812762 0.06371059149270511
5903 -0.005478115626039115 -0.041793189117908525 -0.032082005320791834
1852 0.0842995462725093 0.06940957464548969 0.12004103627497548
565 -0.0010466966530938426 0.0321444280536287 0.018044366647342103
3911 0.0467566944684367 -0.003933864673618389 -0.013207231714674927
4628 -0.09112054654005039 0.09855224786153952 0.001139544582008361
537 0.002127793777970899 0.011084273534780704 -0.1253479288764945
1167 -0.025854017033769203 0.016433337297006845 -0.02606502695634184
623 0.07928471306626725 -0.03291504090654029 0.11235147534328478
1106 0.02961954167722125 0.00153050658273831 -0.028466377765579393
664 0.03999103076445718 0.08429697559035038 -0.04364554532150212
4999 -0.003144196736411309 -0.03044170739910211 -0.12029037133775713
1138 0.027334197184872826 -0.062086259305945975 -0.003471230237035829
675 -0.017729228790485663 -0.05271950002010502 -0.08685170680894652
6076 0.11663690835781332 0.08805347308050031 0.03362499458287873
5362 0.04663880149394499 0.07380072632427945 -0.09751924823319529
5898 -0.018592245193428794 -0.018175720475627086 -0.0871436242398523
6033 -0.043926830405429856 0.05415323846428795 -0.13551540477551263
5757 -0.03303285724915112 0.04960477888314851 -0.028288655554678695
544 0.1403535996160285 -0.13902777838557023 0.07527333908391201
5379 0.15652202688534342 -0.013605215131646316 0.03616809317085845
3694 0.12177477188140479 -0.06666991531964442 -0.07367964408028042
1156 -0.018806618544953864 0.06345220754033404 0.08742732294744124
1450 0.025092736239932543 -0.15016465719171326 -0.033224123173647035
1345 0.03943433798869764 -0.13628007641346876 -0.016509837298680025
1146 -0.01666238895561553 -0.04028281837255582 -0.05146353377956491
2564 0.09433568308319679 0.005326725931267751 -0.04582596202200622
5119 -0.0006589664264931294 0.08401600471304066 0.06322024390295786
1231 -0.019178007122505485 0.15057314415184425 0.00813972949133613
578 0.02139429629036329 -0.08914658486836695 -0.05697735620833397
6022 0.06923738847143232 -0.0599869940931718 -0.02652931251439934
6146 -0.026049769299323147 -0.05441562617142032 -0.11660509073098967
5624 -0.06710754648148792 -0.12182662800810287 -0.04479336130242116
5552 0.07146699913459494 0.06301195706560751 0.08806473386694239
5861 0.033379145848160756 -0.05994250391294044 -0.014248410535075955
4431 0.16355732067101236 -0.12302436957604224 -0.0320498396311016
5333 0.0719897595012791 0.1268881171287767 -0.04501341933277411
5564 0.021628876944305528 -0.26718549668504704 0.16460877445143562
5204 -0.15236058692112228 0.00428963049179959 -0.07551553987047317
5142 0.00498032104327326 -0.1413074011881028 0.13620708477637725
5345 0.09623908758169668 -0.010196430351079195 0.0940294509749987
729 -0.029659255441959832 -0.02107947987337225 0.1493531797613436
1314 0.15858571308934777 -0.008324968064717282 -0.06473381050225016
457 -0.031557197932576754 0.01843378632958389 -0.11856860469369584
5991 0.04019014387744639 -0.18915904839708086 -0.016305786290909768
5775 -0.04141429912801076 -0.08389672363823067 -0.08855636383383932
5801 0.046348215178667704 -0.14462482660961332 -0.0017981235830592662
5804 0.07583286559262825 -0.04781195784525732 0.02822715216593443
5448 -0.024257570868184666 -0.00999334305552882 -0.09034217315368506
1197 0.04441054089909513 0.10505951262560953 -0.0706467931264442
3784 0.07971526378926111 -0.09104045888032883 -0.07648191414713648
674 -0.08403688523513751 -0.14861848630353236 -0.09917504509096214
523 0.01882500982145968 0.08378967603303385 0.01598640571562023
5521 0.020246026630442986 0.04178766110096071 -0.04221010605959422
1393 0.09688488046777953 0.11177910194398713 -0.06098220661396299
499 0.12354197291043831 -0.1804537320547693 0.02357491695654749
413 -0.04664542567632651 -0.0881930321851276 -0.01578513997307468
657 -0.11000581241193852 -0.042782947553868855 -0.12104264636778636
6063 0.15893733295822973 -0.0024625547734713395 -0.07159524671271089
5964 -0.03660416405868739 -0.12353642802618386 0.030955133493795986
3924 0.03552823412579059 0.06484198081958674 0.012204106373441305
5591 0.008837838913408457 -0.13850272546650647 -0.06875287907672589
5944 0.007573078616236602 -0.05632908821532089 0.0766429819605219
5258 -0.06229108815451529 0.10704178091840086 -0.09493207439386073
5323 -0.05485556338793494 -0.14046131991173716 -0.04916303388961475
3594 0.06143623312007329 0.03797481154056276 0.07101256166229222
4920 0.03234567340318486 0.07493757692822689 -0.09011181948643478
4967 -0.040638256277244864 -0.17606780918581413 -0.0036788916160077744
376 -0.08320064005926689 0.275240762541153 -0.06250937673023649
5372 0.03567726817406297 0.07434111464824926 -0.1667077907389763
683 -0.1340529298750478 -0.01605178078192433 -0.0788618406344099
671 -0.02654871236096908 -0.04488211321772724 -0.15456967542257677
397 0.0308595029835416 0.08939583082299027 0.07439843194887029
1188 -0.06553067188516677 -0.07914181497431368 0.04577101430956919
6178 -0.13126233326526773 0.054844490526438194 -0.11658219560221088
6123 0.08963801655136161 0.00884538899359135 0.06708477395495437
6034 -0.053400915605006344 -0.1250730846765109 -0.11498378407655384
5917 -0.06292979860567254 0.10350296156648775 0.07179882175671372
5770 0.047031266608891946 0.013497108395209468 0.03843345932852512
3439 -0.0611262622909167 -0.0685736216857 0.09124403418685348
5181 0.043100184861335517 -0.10842958777320699 -0.05898766318757633
455 -0.07818906476417031 -0.007816828539469349 0.07095358233567459
560 0.13341426797757494 -0.07969750684781216 0.05098879822255634
1284 -0.19233514882312103 -0.04358632201992671 0.06648077933601101
5456 0.00857461569575228 -0.014654268334445799 0.10008630528051
1415 -0.08595660150296765 0.022067599682080174 0.17920373299103307
1426 0.06163562185781558 -0.09501340475411589 0.057128185138544396
5972 0.03021255672054601 0.06331815832051849 0.19514744754477117
5790 -0.009974837789544961 -0.1739563562290113 -0.0852598685499488
5523 -0.018298097223903076 0.030231611989311895 -0.08765953365254045
5339 -0.1623570025689222 0.047295872158002995 0.14649319878506184
5240 0.04185899353636584 0.08288970650105018 0.02205134691539449
5519 0.01602366637055441 -0.19033760315538967 -0.005891653800845097
1202 -0.006757444502702468 0.04413572852730441 0.23538757711297367
5286 -0.03894927352073217 0.22730074855832072 0.03866708228362296
495 -0.019785122478410834 -0.08059556063636288 -0.15786503169873758
3915 0.13979580528290997 0.05882785739644797 0.09304626449893746
5173 -0.08714334395999716 0.02404452871662538 -0.11679472873395207
1456 -0.13288953765224462 -0.08778820660550479 0.07247580374149368
470 -0.05720347578910755 -0.0456169904488872 0.04792260213818198
6182 -0.011062223706059813 0.03595184740902059 -0.16954451564403777
6082 0.17923041124900854 -0.012530683486566652 0.021324980141806924
5857 0.1350088680242019 0.022331059369034404 -0.13871166147187272
6135 0.19570748343212963 -0.06182682303089102 0.13900118842782236
5625 0.023875505097353932 0.11202413813841328 0.10867354571415659
5800 -0.08980979028980624 0.03065150012033356 0.07441955469925594
5531 0.039966861635305814 0.13205238182514067 -0.12962753467064508
5327 -0.006143998004614753 0.07357421160660782 0.04915499662404077
4721 0.06371102181356456 0.07745708809203901 0.08528318656388059
5514 0.007608338477073623 -0.0440428574910115 -0.006384197172542038
4315 0.04787683009334475 0.06386593729179435 -0.0680771874256683
5062 -0.10081507443223545 -0.1274270249280752 0.08037515216054444
5001 -0.05232002195590786 -0.0068362246898801445 0.12091352576753411
393 -0.07200589282019858 0.08705277435541021 -0.0713890777695912
557 0.04467236285963604 -0.049121312753548516 -0.12048120976179555
1179 -0.18394152523526822 0.24515803559809907 0.06418414993014529
1131 0.1145361014354431 0.03070958497505801 0.05898442287968159
5065 -0.04143141892992591 0.20342056617997292 0.12799690419290702
6180 0.10128980483742615 -0.09248613004667693 0.1142906591550105
5528 -0.08506441483100187 0.10179585645419909 0.014323181159021522
5937 0.003009392522765029 -0.03106997055463307 -0.07708427655732111
5918 0.034674965518046504 0.2273012080381057 0.012383334359286857
5839 -0.043497782935105755 -0.11496303499480053 0.023521235557802285
3697 -0.00015147385029419828 -0.13703889506013162 -0.23304156093667291
5334 0.1914526871817419 -0.05655633858141487 -0.06386212339125606
3330 -0.07941658670921527 0.022998054277453446 -0.016910498545538572
4728 -0.021700519851965843 -0.09538868893837286 0.09125172045840498
4753 0.11199370469456005 0.07869159180468369 0.00854428230095516
3995 0.05532167179021298 -0.022244688903494653 0.011103168301193383
5225 -0.058768590131967245 0.03143725952260179 0.03645544407832294
587 -0.1544930165181007 0.09191231701939236 0.04775161822298449
1258 -0.13957444824485662 0.002478277014901744 -0.032246475448776506
5392 0.08177112554445369 -0.16889741823505916 0.0394541011278105
6209 -0.08502169717850054 -0.066467240665111 -0.108392272666639
5994 -0.08583995389576012 0.02316832342216398 0.05812766859920268
5509 -0.15286137521807341 0.05340087815952149 0.1269924568034534
6010 0.07149146790982229 0.028988163514674363 0.13387808316968397
5444 0.0758618332953772 -0.0444728520671869 0.02888493080451526
5742 0.0019309680702701143 -0.025568700557251384 -0.03830873992298629
4496 0.18065240027898224 -0.1698873956966828 -0.003051039690294981
5275 -0.16653692117413793 -0.13643898074499172 0.10144384900233547
4573 0.07496479565441502 0.03216841985920218 0.07984068195704874
5346 0.08888754894069648 0.011176597048786478 -0.06317426311826414
4992 -0.05567815353370467 -0.04605410817448905 -0.16501980914914854
471 -0.0003018856991095823 0.0022549214144722135 0.012445479588251505
5259 -0.21304198879524325 -0.14116006918002644 -0.016750649613202228
670 -0.028967386515207968 0.04133853828720292 -0.013097008340024589
1387 0.008287055012359271 -0.13084659629473278 0.01388862945189091
5330 0.04771733184520571 0.1627050936418195 0.029448833692853317
5922 0.20550455378185212 -0.041795638422744634 0.018428533109983512
5876 0.18730796526941834 0.12098534183746532 0.1848526705512085
5697 0.039069406084964335 -0.021974996950346257 -0.026103419012224766
3796 -0.1514381666201944 -0.07025547263005502 -0.06056647746420516
5756 0.13138831898438594 -0.07732617983446675 -0.06551123680494099
5727 0.11372632284120393 -0.05016917438509742 -0.03436653238060971
3829 0.057726346705616896 0.001103987844563819 -0.11463255103848977
4062 -0.14067042542094613 0.013449102380340156 -0.11895497938193805
5413 -0.05096400202176044 -0.025850343314370833 0.01026788205387131
676 -0.11786523773035425 -0.09194503674675694 -0.09401245634765767
4527 0.125436776342336 0.014001861616981814 0.028038410588111396
1414 -0.03297600807790767 0.07478018751610066 0.11827816766413116
728 0.00013345899237925292 -0.07649336524493022 0.2105760162418294
1107 -0.05120584990086865 -0.03915284312935857 0.10228432830872344
1226 0.02303724772991978 -0.05687758886644258 0.1514378597521876
597 0.08080207302307021 -0.08701675376384357 -0.03127601709034071
5773 0.0048407834008597425 -0.014627007998485795 0.01520125988079704
6191 -0.005887128819909495 0.0477896355367849 -0.0878917160772931
5784 -0.01686408458392001 -0.10851405094700545 -0.12024964523821094
5837 -0.0804359429429244 -0.06351657090808616 -0.03357913841688159
5534 0.128596590995095 -0.07776504969054883 -0.07550878289035894
5783 0.033441474925736195 -0.10125350595631197 -0.0004298932196412607
4996 0.14033272486353715 0.18713020107269893 -0.08552991112674906
3323 0.050511024856583084 0.016512786303913764 -0.010018569142780043
1351 -0.09349484030492658 -0.0870859310532165 -0.011986243753165954
4973 0.00902954568299242 0.11316563783069186 0.07530204404844959
5004 -0.04668890804948416 0.060816439714476686 -0.14324969943147042
1347 -0.00552846835469642 -0.06517238996005506 0.057886604918654105
1369 -0.11108249591501179 0.016128323448828794 0.010418824654938996
1132 -0.03638277927307813 -0.07664413469527694 -0.019458596775846777
6232 -0.09680949224282694 0.13696306761265634 -0.011460430366452345
5900 -0.06513645672925661 0.060596570317037884 0.009077598685358373
5894 0.1294420403342149 0.020874157235676864 -0.018159593971614728
5305 -0.0677643536587434 0.1016325510649207 0.08708249640050977
5721 0.1931381922044675 0.07196493886848448 -0.12883671029648716
5326 0.10406406771125574 0.020227568863691966 -0.018038431203774657
5461 0.11091776327170068 -0.12670235266381105 -0.1544522078405249
3992 0.07310455753222475 -0.01981767682303142 -0.07277880107880962
4268 0.13593967060427056 0.10767038418747775 -0.09668066525832895
4498 -0.02323120945991839 -0.03162853401590524 -0.0050611876708819975
634 -0.11180471693347911 0.015631401742444095 0.04421579807334511
3577 -0.1064386599551976 0.010529673086798788 0.1471665245791948
5277 -0.11500696111468126 0.10533727007005246 0.003386604532874775
5264 0.0394430853382904 0.04513708367774089 0.012829142794955827
1294 -0.002769985459476626 0.01671421014231189 0.11641913899268422
580 0.05957149375486048 0.11229045875677302 0.0738227252619064
6177 -0.005506025374662844 -0.089148872581187 -0.07876097590596907
6121 0.08174104123958272 0.016462837879142024 0.25148644304694384
5806 0.0076141965848937655 -0.11082481674287303 0.050463826297406436
6072 0.07012672420673013 0.09845780317659304 0.0856459309278343
5956 0.013018268157826033 -0.1166709874133674 -0.17205914235763423
3423 0.06000789943054164 -0.016864447468646793 -0.07897299073325201
5171 0.012088317479762738 -0.061740756829949166 -0.010058782859858511
5702 -0.0781715904100165 -0.0641630059949318 -0.037973457268622085
4715 -0.20350173205746647 0.0010243449820339992 -0.08785300121595721
4578 0.016490583800697862 0.06600847847992955 0.07284775379621233
5112 0.05264376146123074 -0.09609899880166593 -0.121930590250094
4533 -0.04086174436044865 -0.04287304311091256 0.0082691469794633
5332 -0.01478826228770359 0.029791203100690146 0.09522146485381443
3722 -0.022132776592668525 -0.06235519404572691 -0.09877455368192731
6228 0.15007928539539836 0.021987648716302665 0.0006410858324848107
5959 -0.04676736993876253 0.015549086538446312 0.03857242032242229
5924 -0.00016548161182980176 0.06954887591500315 -0.10156981160199971
6009 0.001122955563998225 -0.12058080721697602 -0.016623744390207803
5763 0.09362028932809657 0.07272409826178652 -0.0066683454534760276
5338 -0.11702022447354005 -0.020588388986251042 -0.16029426051144335
5566 0.27513821584946135 -0.08114305965933999 -0.06936707386126477
5329 -0.0373039318720721 -0.045428184847356806 0.12776488013039425
3554 -0.11367543603970794 -0.0465611673447522 -0.08202545289273268
4085 0.010790462332094429 0.002728826342210791 -0.0684788050983912
3468 -0.06025117962304305 0.05002922055534546 0.04517818612387006
4557 0.11457697926072613 -0.16694138963587202 -0.10357935599741955
4429 0.04884002721405753 -0.04040254577242721 0.007340217421910159
4265 -0.02154412562115389 0.13775564191771444 -0.044166438678644365
1404 -0.037098028837227515 -0.06995540034825029 -0.08103821230804747
5189 -0.021439939848820568 0.15461595267505568 -0.19052742801662464
636 -0.12259754387306618 0.04956246656349612 -0.1195737101945371
629 0.20737926480530716 -0.024975759112405488 0.02677847009979893
5823 0.031114528885324833 -0.001978000414847981 -0.0792266084674122
6148 0.09734766168070597 -0.1766475152351149 0.10381624427780389
6122 -0.16179041236966424 -0.031589421710636556 0.03197799079228407
5614 -0.14486452742953487 -0.0051427611782600205 -0.07724749426182023
5762 0.04592968820806803 -0.08007593484333976 0.11337785891151296
5612 -0.044323209952863006 0.027118051384476826 -0.02765620082127737
5296 -0.04447508314617261 -0.12985835128376186 0.08002313784359731
5349 -0.005499980671882294 0.03903177585595585 0.016481349122584137
4553 0.06758572703848238 -0.07675324958601337 -0.009794404489249037
662 -0.03961438685586142 -0.2015996951277781 -0.029928199832687054
5174 -0.023450393741554502 -0.04952058331072619 0.19058888205267294
4433 0.01908069785044485 0.013604588504444078 -0.028933581613425793
1289 -0.05080762676987413 0.0842883939887 -0.002139602327306884
6187 0.14737799261756396 0.09593648652460002 -0.15611896915648335
5565 0.12241010605689491 0.026689841414018547 -0.10712376694071048
5658 0.09909775524116697 -0.01915735694712716 -0.05621976354513816
4911 -0.17706987861730403 0.11478116234148168 -0.07329852324725636
5539 -0.1604549056218254 -0.020397033704684438 -0.017810603245356688
4075 -0.14840800191437026 -0.0375282917938212 0.03743301748802649
4918 0.011545841086248105 -0.05861560966324507 0.14527155682186402
5138 -0.03745472690355536 0.13254280794387976 0.16729437122641413
5040 0.03340830741423798 -0.039280143416795484 -0.07286474996575668
5208 0.023627192921170534 -0.004783886862347805 -0.03502804191746302
414 -0.029716748435363982 -0.009921848876322754 0.03550197521355841
5057 -0.08563861438106178 -0.02868092166999594 -0.002212803951711122
5006 -0.0723363579638529 -0.028351453323486694 0.004215207828804295
589 0.08005335841369698 -0.017996880511099662 -0.004796663367897372
1232 -0.12829979641168873 0.13409464179693245 0.10391098996884754
667 -0.0698473986340273 0.0844865026400869 -0.16803753759511503
6153 0.05524397140839485 0.0017877808990105406 -0.0664425522383831
5649 -0.010031294793375493 -0.145616172836738 -0.0532333566390288
5820 -0.01351525046128058 0.11898143432433257 0.05063810924990022
5829 0.03244136391477677 -0.06096844341355745 0.01818861585377452
5877 -0.05354644259086613 -0.1398431274216997 -0.13968800655705116
5761 0.07907521891246257 -0.0241769707428042 -0.020554626736783717
5318 -0.09253814205878799 0.02195666541706067 -0.1260238044946913
5381 -0.03920690930757112 0.03489158996740047 0.03183904174972563
5133 -0.027994482766198998 0.08701908807155924 0.005734771226137088
5200 0.1338462527247604 -0.02434091242504384 0.026542768531281832
3475 0.06932305229027685 -0.21439882437942306 0.039773123950319456
5219 -0.13430732049241725 0.12560528756451522 0.05106819476201324
4709 -0.030538165824113443 -0.08169368266911128 0.08295881452641732
2597 0.00643526971857797 -0.12831325530091894 -0.09900247839022583
2021 0.034696416974826116 0.019058358249461716 -0.09851827368697802
1430 0.03526384331686514 -0.017620230764836424 0.030235341099823003
379 -0.027400159894890377 0.05175420924511768 -0.08655934828936829
1116 0.05731246164550107 -0.016653835701242892 -0.051830056918943976
701 -0.23066155403756322 -0.08438968661964413 -0.05460713950476191
6079 -0.14407105464842115 -0.02272501565297884 0.03735195691116485
5858 0.12613601849284006 -0.13661087219938 0.20196931112168054
5885 -0.060093318887873205 -0.13178337789350825 -0.024372690561904515
5920 -0.09350245880544743 -0.17842683847364188 -0.036534460021376634
5237 -0.042056602316354906 0.01332582599607246 0.02170272054565442
5569 0.10743546519579758 -0.06341448499151406 0.12899626598157493
4759 0.14949416766343548 0.0035166241262572146 -0.021162812490903467
4556 0.05916105040355984 0.07099812915242458 0.10117443338731874
5647 -0.14154652995034323 0.13966341367986618 -0.19732281577030245
4061 -0.029201699180116253 -0.12434964950812398 0.16922267964397864
3677 0.04335159075057447 0.017125628308590803 0.029476554241114283
378 -0.0016210218685794447 0.12151287612576997 -0.1378181948483668
5111 -0.04510751317953048 -0.022410557848797023 0.06358149475798291
5288 -0.12004752358480654 -0.13544613555966784 -0.1443430296498263
6081 0.06617122766919925 -0.10479570965151032 0.1501487641646237
5896 0.10124804418771821 -0.02769464644565626 0.0356019476936757
6116 0.15714611117699673 -0.14615523140574 -0.027902333492783996
5940 -0.10480207548848938 -0.07397536126460033 0.09322719125941023
5602 0.012241377697688363 0.01474111224637422 -0.15188981550508251
5116 0.0064383709195990685 0.05173565708030468 -0.06568261812279416
2683 0.06993055105235471 -0.03861079209892811 -0.15657501824222128
5234 -0.1358496627785377 -0.07134153428975297 0.17574514643759098
4881 0.02013495100458123 0.11798704567674 0.03725112302820374
4197 -0.041307783828635036 0.06455280528747369 -0.02581102658008637
4951 0.10560535281649244 -0.16481846973108244 0.022140601424275524
663 -0.06640764721917378 -0.08924808362579577 0.05590371289860586
6018 0.04546059962615249 -0.015568715013845824 -0.02608029235371639
5608 -0.04716475518972335 -0.09058740971114917 0.07768988532894548
5978 -0.005839048271533826 -0.09982471478456255 -0.04381944741673248
5575 -0.03957000295481523 -0.05514576428123288 -0.0810248198223951
5889 0.052312691488854146 0.021756157453209593 -0.0021436152951338893
3832 0.07322902847871941 0.11764133105034551 -0.0908870940695808
4991 -0.015591578005814864 0.07106946572708966 -0.09850528829850877
4577 -0.11076292994392906 -0.006892609465300927 -0.09608049851292697
4696 0.03396250065923561 0.00076917514599565 -0.06094452641606782
383 -0.07284766993023531 0.04535162572919495 0.09988451566293308
1376 0.002286282906815963 0.005807551354790794 -0.10844223674331256
3610 0.06412512077798768 0.06708868887818274 0.2369113231672131
2713 -0.041209158049587954 0.02138990048680957 -0.14632106277882642
5626 -0.084290086471233 -0.06761507003987965 0.21756819878874326
6068 -0.11275157342498346 0.047514278604649934 -0.012711814478555662
5447 0.04594328493975414 0.012052523172358082 0.188465039856855
5556 -0.11363737455223076 -0.0983051997691352 0.1581903375134108
5661 0.29010992187111506 0.11246444718425734 -0.11667643487434423
5574 -0.02773519381325535 -0.05937985995154936 0.1190523501197186
4785 0.006076234781347001 -0.18428506846297982 -0.01655066921748192
4955 0.05713474232827416 0.11008350037239785 -0.00255538666921808
5051 0.1929500334149506 0.048113651065985724 -0.04080471319239968
2643 0.009775239655445585 -0.18335700536012395 0.007882181608575008
660 -0.023826899815238112 -0.036098255953732755 0.03135529128867102
371 -0.06941217630330622 -0.14701771503227368 0.036375351965405686
669 -0.07197471419737002 0.13274252657366878 -0.06574503943068156
585 -0.003973290932775202 0.12517339441652478 -0.0058110558445406205
3711 -0.15690312636603798 -0.016308771733690122 -0.016557407811158047
2730 0.23286148059852962 -0.013825375309333702 0.04996759239224953
5511 -0.031794188659800895 -0.09418138587439717 0.022296406769888776
4576 0.0536235231126642 0.05388025594391592 0.01939994980112461
5356 -0.02543678308251521 -0.14956895879292145 -0.06283176674556457
5596 0.12467926109147005 0.07375140615587986 -0.1843004382671591
4143 -0.008859658322726251 0.014842924486631444 -0.09138636425869655
5436 0.11036095381444112 -0.016150925344731337 0.13595684842502415
4751 0.02717389140366264 0.035879230715853604 0.08460308303584432
3565 -0.020000135455056363 -0.053588940243293325 -0.09883214259475841
1190 -0.007118252431146537 -0.03966863398287569 -0.0172854376735563
385 0.06637503006317544 -0.0848781496353137 0.005004851586075238
5706 -0.08652047217975496 -0.167052410419508 -0.15930990416751903
5319 0.07746459915238386 -0.11354705730913556 0.0340104348843769
5921 -0.1567052950446515 -0.05079354609645138 0.0019225571963271508
5280 0.05003525451955992 0.03174464885668143 -0.00480824513139164
5252 -0.11577508865533169 -0.03907195676501439 -0.07639234343335083
4442 -0.03411770112693902 0.03573103205116854 0.05118323205325674
4830 0.08141632241473855 -0.07585772293693198 0.062370294932468075
5322 -0.023506644647134426 -0.09815508555072402 0.0326910028271693
2139 -0.025084989275162645 0.19031071288000526 -0.036981263344235474
5276 0.050881475514540295 0.030297349528002098 -0.12035834903024814
2121 0.18168182445662773 -0.04720960523539763 0.03605022127712533
2859 -0.0837803233200272 -0.09789559854279382 -0.042803633315411795
5115 0.20983992454201464 0.013233255935084136 0.08256539574552504
5665 -0.1784877499556578 -0.1264856065062931 -0.13981111629847492
6117 -0.05004484313305122 0.014117103336400032 0.06990259199247362
5363 -0.02996197594788884 -0.06883538071610723 0.05869801141482557
4905 0.0878128850052616 0.06819559688772364 -0.032652548475321265
5670 -0.03219081475167235 -0.047381352747254704 -0.1513562594983876
1873 -0.050532743826796477 -0.0890522114271366 0.0010695837422367155
4740 0.05359516665125165 0.13002864871134126 0.038572617250319116
2847 -0.062236249016990486 0.08374009197175451 0.10533776532825345
4950 0.05907561474585563 -0.09179594983113754 0.185951174954147
2731 -0.0033921170077014506 0.022922182820627076 0.07001202360511193
652 -0.20389897699554146 0.06448521763211087 0.07606752835250186
2100 -0.13094537576715337 0.009387314987956072 -0.03972690756135179
2707 0.10369083555220743 0.10581133368102724 -0.18608902430202934
1409 -0.026136013966671177 -0.02652197632784463 0.163914568395507
1927 -0.020856437829367514 0.00786982616259246 -0.04252588982057351
6174 -0.2359479709071403 -0.15631216292690553 0.00014158372605721677
5868 -0.06245633547107941 0.10480798867234394 0.15162003665631194
5555 0.16465455917075966 -0.020586010140349307 -0.043472928076306525
6165 -0.060387015558431206 0.12481863607192852 0.05998464216405475
3586 0.08403981278257883 0.039718627872148415 0.013750379239538427
5777 0.009684070424543141 -0.06302188506061 -0.096190492566713
5257 0.20575585822850517 -0.003745889818277317 0.0639818588107378
3289 -0.06535962438475554 -0.07445087600923456 0.14315410775099904
1353 0.09523184993482005 -0.0539213193318195 -0.026543891792290098
3450 0.03574285135667286 -0.05226705303711374 0.09875281446313627
1861 0.1758956816753971 -0.10307618738466252 0.05153395638674624
3996 0.06437354078931881 0.07011094265719585 -0.03909206007620459
1986 0.03812585378472325 -0.11111861485026758 -0.08517968279769608
4077 -0.05021341649981191 -0.14343952020471074 0.09249379181864673
2752 0.11670931925654819 0.07429930547650958 0.011410965384173582
4917 0.03638690996634897 -0.19285593440701157 0.06975548562606661
1906 -0.028666023972754563 0.09709180636655129 0.022328391523947822
6078 0.1154032093770391 0.014248127079418079 0.12902405824683544
5371 -0.003370417535554596 0.00727032744550735 0.11719293497255641
5938 -0.06590178814214881 -0.019903244534846563 -0.07892519540744941
3797 -0.1611860424968168 0.018320219282456404 0.16490796662235327
5541 -0.04147983098917134 -0.1775341070516977 -0.07388362203483965
5787 0.06213107197322193 0.04795895057052053 -0.05742915162085487
5439 -0.15626255998790917 -0.07958081977421455 -0.16612321168213293
1363 0.03910239252785164 0.0576762072726834 -0.060878139908139256
4306 0.08645193940640526 0.0960308895183022 -0.008034259891569149
2002 -0.09366799448754655 -0.0899581112586625 0.015288734802335434
5135 0.027647550489814814 -0.13566034161645074 -0.06269039248602677
2067 -0.08497827241178953 0.014932969167950328 -0.10338849051744878
5923 -0.026407486031532375 0.03447475262969957 0.022624737678789197
5977 -0.04023275176342309 0.12901960792666806 0.020163003667912523
5696 -0.046094576607095344 -0.01107197370658856 -0.13876850339891228
6025 0.1793254058868088 -0.21071021148825328 -0.07559747792997219
5390 -0.013614611343395418 -0.004869478959686549 0.0867314458719983
5055 -0.10329706461262086 -0.08265231470444782 0.07584498014812972
3267 -0.006331495740903151 0.04021052487700691 0.13938167198163653
2608 -0.0015085747807847237 -0.1309953368048923 0.05515516736048093
3786 -0.0453952782608232 0.015205963506194305 0.05358157366059617
5244 0.05171036151376805 -0.03582435028764553 -0.05126097270016603
2738 -0.0016388102508305379 0.07962572371275131 -0.07531768697996223
3272 0.018966037593879256 0.03667504337216203 0.06740632575788894
2093 -0.0981225547484317 0.07156017527365448 0.10558196470372788
2639 0.12579910466298563 0.08541273980674494 0.05346376742465355
1879 0.027237038725771025 -0.03771088112106787 -0.0325929117567023
1824 -0.046929520975923095 0.0001867203862416407 -0.06954462356186997
2618 0.14769695256209206 -0.038875299966433095 0.22090722877122793
1875 0.08269143178064302 0.047695907565648225 -0.00730893897666525
5724 -0.04007330924052101 -0.09415050080061985 -0.09890426997708099
5841 -0.03139175935882446 -0.033902622632865524 0.07328322662007539
6104 -0.06634699457643872 -0.023175928062394945 0.12796491343883817
6016 -0.11025397231741882 -0.14128353503990748 -0.13759994105812948
6061 0.09839616935363098 -0.1390416780839845 -0.028951187162027367
2578 -0.09561701372928005 -0.10979800878714174 -0.0027451161267717725
5297 -0.12623377235501443 0.12743094755723153 0.26719625422422333
5278 0.06183459195618712 -0.1487844285237868 -0.06606359834319414
1975 0.08541439490517183 -0.18346750522700828 0.10303272278576805
4829 -0.007467307829180536 -0.15125374564727634 -0.025529275057723316
2607 -0.018972943917163733 -0.10573856481001695 -0.061278890922059084
2845 -0.022900042663863484 -0.11300749428034293 -0.12327304914711418
2632 0.015893601907216566 -0.07602759196049558 0.04263494027768333
6017 0.05921496773626003 -0.10054571982537543 0.04370043988370336
5517 0.08940942484353409 -0.10592230769821015 0.08148915165601772
5980 -0.0455416237204825 -0.058078184188239755 0.045738928026995154
5913 0.016061542583123728 0.09407845108384609 -0.1593279958178696
2143 0.10349057153871093 0.03543719374381215 -0.037363898287849494
5846 -0.017607211188528083 0.003789577284744435 0.08800667481767008
5404 -0.23664845614107344 -0.005343188753716801 -0.059906539837688746
5253 0.0041814790741717504 -0.10167170367271236 0.03396501916421696
4216 -0.014799000404419206 0.08290424509013929 0.05218383072375527
1914 -0.06217195589061583 -0.02131391899666478 -0.15050319801358011
3823 0.01978519282738174 -0.06409974738251047 0.10166603444176281
2610 0.03915305055691322 -0.028901068094377508 -0.05637162781074924
2175 -0.04951243277686876 -0.011756544803339953 -0.011869652266067017
2145 0.044394545069897665 -0.16926825970391007 0.13667920020662347
5974 0.01115983371926821 -0.013506554358461759 0.031945434268363646
6234 -0.15445743391300262 0.025599614047392857 -0.05643045287628024
6230 -0.04178465876585561 -0.036873891885819146 0.11928650395908175
5895 -0.026788943405180263 -0.04598709044279489 -0.004772189611821236
6037 -0.033892460029588706 0.06803975107651195 -0.11503863945277645
4877 -0.0035132538227528685 -0.1418421142392873 0.1238199434665969
5668 0.13888410061782475 0.14068704137272517 0.01719176373508817
3816 0.025325104743882068 -0.05711288006001422 0.015516701651880006
3583 0.006016270657234455 -0.017622505185743924 -0.10186560713259436
4939 -0.006358617604924724 0.07752846525121718 0.042836241229054786
5262 -0.10468762970543495 -0.15066453967060892 -0.06630483420045627
3301 0.08988173701038786 0.1491482372518337 0.10078228582639555
4703 -0.06818740345514744 0.03775388806396679 0.025262016110178306
6086 -0.02069306254463815 -0.005100555146756218 -0.06955425060571532
5873 -0.03266021153388238 0.009389830868484262 0.04039994491195305
5947 0.06481668492281452 -0.005757402667547044 -0.09906585479931171
6095 0.05714192495786802 0.10249234328771101 -0.07293199667993357
5478 -0.14821300873455265 0.08535354175168672 0.0016279523582838247
5616 -0.04096770671983102 -0.04382320856948073 -0.11072002849944779
5451 0.06324198698050114 -0.062368752415897136 0.0787466466518821
5435 0.18020237903799666 0.061674338651060145 -0.012128700921889928
5394 0.054806909713338806 -0.10763856191616863 0.023757697562073864
5272 0.025489494112664726 0.0807651620495442 0.04792423851399678
5385 -0.04651785133365039 -0.02393631472462228 0.010817076711489668
4640 -0.02213374543405723 -0.07221413508229826 0.006655241478930412
5495 0.19457481831056095 -0.09979357137468813 -0.04900663047741041
5526 -0.08629588512615763 0.11970650343934229 -0.08090497938941772
4435 0.043418245964110556 0.01981315683502148 0.004125193263020207
2560 -0.06835828673499622 0.03909106367852014 -0.05649923498396209
2892 -0.08838069433871514 0.006201479367574635 -0.1531944303721413
2160 -0.08275946978397193 -0.026000246292917292 -0.03353797951276639
5939 0.1467100224226752 -0.2655242018347718 0.1549416517073547
5730 0.18399234389545147 -0.09282330786202003 0.1020148737164423
5960 0.02459212619262885 0.08558767275484168 0.017610459101028673
5476 -0.029623533159246797 -0.056801670452948 -0.11812341585085823
4010 0.0825713023992857 0.08404079311256998 -0.052311204505714075
4082 -0.0028623394709806 -0.11787421240072798 0.11444351085931465
1833 -0.02680368556419136 0.055448148777394464 -0.019126731359760625
3552 0.036264179743526734 0.13125790700636975 0.08220211687616247
2717 -0.05028191575213281 -0.06005923215968658 0.08345743184580769
1835 0.06426186757876536 -0.18301547567974222 0.06032069109957972
2010 -0.05083594600479092 -0.11642146367478663 -0.0448207670455948
1897 0.000977963543030698 -0.05105679314453804 0.22571188030830114
1937 -0.016184388079670306 -0.13197015729654032 -0.007713050006956539
5807 0.08502029336370676 -0.03717543540425593 -0.028721455613745745
5912 0.10697545754807097 0.07261527155392175 0.055001735069341536
5792 0.05482985901288878 0.11401620132914929 -0.1259430764790978
5931 0.0802828946780338 -0.03313979109418228 0.03134418972723407
5880 -0.04433688591368491 0.1553813288281118 -0.055544308088936255
5722 0.024825774754664406 0.2257845818208508 0.03603838273596773
5563 0.0677471912644755 -0.10124725092363535 0.16457869836606637
2005 -0.026468951217879053 0.06926574496268384 0.06356551475337442
3578 0.15111400538391084 -0.018245580786353216 -0.251770197876423
5310 0.04963308008138056 -0.0009575958245592732 -0.19081836300574812
2132 0.10399495165647551 -0.08262529761423303 0.07695317106160995
4825 0.20719935787447658 -0.06882525712111073 0.048418828852206074
2126 -0.03205295594730945 -0.17063985723989594 0.02401266566522347
2565 -0.047641358343986175 -0.043002338469603135 -0.1140749160854962
2577 -0.1345768214362613 -0.036733476048553364 0.044670182948164876
1880 0.004725613953532187 -0.072052195131273 0.04698981530286598
2652 -0.012276575413446273 0.03854935381465899 -0.06519485453720864
6150 -0.11761887665978367 0.13331390449733985 -0.026268565358723094
5851 0.026500122039151943 -0.15413386043953917 0.00798938220977357
5774 -0.010742156900257037 -0.14351496270306785 -0.037504133504185244
6109 0.06029309042191002 0.02241384417459938 0.21320187313075886
5674 0.029846708547274742 0.17724844343279178 0.09853678102703221
5411 0.006615376137949472 -0.0021836103917506483 -0.01812395135989261
2612 0.008055786088577065 -0.02471989124873265 -0.046730549529326745
5386 0.00194627750185377 -0.0031271260467882443 0.11555385934723099
5308 0.024864843549924992 -0.04850510620256453 -0.13297165004063063
5294 -0.016324716392923218 0.14196408741812463 0.045905203157573134
4065 -0.16041419959789896 0.059546138978677554 -0.09037010464081453
3810 -0.08881397366056092 0.06099560438541385 0.03703915830406226
1922 -0.035226764584533596 0.1408772275112502 -0.028408984219190966
1984 0.0018310193597052583 0.07268856703480114 -0.11854105433308909
1842 -0.029294243338661142 0.019364088374681572 -0.1132068322090729
5364 0.001207602280526937 -0.14415722695099986 -0.024386202000905927
1976 -0.12504786501276668 -0.026472024618206098 0.09367068523978506
1825 0.09406148583801115 -0.06473565218312877 0.008674457440151898
2181 0.0016435932216430132 0.045036334306240454 0.024925587827514844
2017 0.04832392927524974 0.037776845666038644 -0.11755130223519789
5355 0.038202891121645974 -0.02335217318568561 -0.1167052699720713
6031 -0.1835972169970754 -0.20652841802147595 -0.07815760944635201
5446 0.04104126757420391 0.008766277292474357 0.11710507819145738
5409 0.04577810498694637 -0.02804924156382645 0.09268605837498611
5365 0.11303213944087542 -0.06728975861423625 0.02880302999565389
3885 0.0005684119165681603 -0.09754762525865057 -0.00715139825881143
5236 -0.106897738427156 -0.013907789130457246 0.005223495866055217
5076 -0.07923699554136782 -0.023342832304807513 0.03205119423535325
2646 0.12515697890093674 -0.029401030281489982 -0.14068641494278078
5190 0.022940340198085288 -0.17330831696829316 0.014965406138033752
5003 0.12430646710653086 -0.015781046553264597 0.04965867590196517
4532 -0.06789650754929862 -0.011055383138912044 -0.008911909491884385
2825 -0.11213358540565088 0.11255882008287199 0.034145814610836156
5113 0.12547629272685504 0.0017073385302231146 0.04681851594651255
2008 -0.0881783753451899 -0.08446603163893737 0.09064744870621759
2078 0.16525039205187622 -0.16093886446377137 -0.056721988214033695
6173 0.02982125173127145 -0.05856263320519946 0.054366053718959056
4470 0.0020609315469515225 0.04549969877216951 0.04941291336837584
6101 -0.07678664610978111 0.0644464344696595 -0.05038590606831558
5498 0.062325176601485316 -0.0770356674621147 -0.11574823457664941
5791 0.12053196884613868 -0.04086634680873689 -0.027093501859856414
3608 0.06379252076882966 -0.06694478698973232 0.11182500689084172
5361 0.06866842999306424 -0.07319093873611772 -0.09070142008466715
3675 0.10310182725867097 0.10442574306211759 0.15322409744678817
5020 0.06833050374540747 -0.04085392397381518 -0.08673080359842479
5056 0.2323634905764409 0.0030651953376784856 -0.1291657007265959
1923 0.03345408791201695 0.051967344223521984 0.07475835337578149
2826 -0.0751791302133383 -0.025348945880190966 -0.12096798132531696
2880 -0.01699413720992697 0.058447645568385255 -0.044298620342058975
5143 0.168455056193652 0.07235262561435836 0.07162668545189098
5963 -0.030575045709734253 0.05772581310425029 -0.11903079407697623
6007 -0.0751277635630396 -0.08582613887125594 -0.05374838570802701
6124 -0.07912334367462867 -0.03996221813715288 0.11520114039684104
3597 0.038684444762664194 -0.0994891043171991 -0.08292053581144589
4400 -0.07086614514552426 -0.18116728738750967 0.054080495016223515
5879 0.04420627846757173 0.22102555029494822 -0.12667467828393678
3818 0.0247282718120356 0.018181998894132904 -0.09499106061193577
5210 0.19895372531484187 -0.05964542605624493 -0.08643895761533976
4060 -0.09705699940652414 0.025372554843971024 -0.004067214453599239
2004 -0.06664734784647983 0.014029886528114368 0.054830297341833416
2846 -0.008760574699593203 -0.0057123792473303125 0.055068371034009016
5172 -0.08065135430645547 0.19573522868480459 -0.04438575185677172
2702 0.13493454082107137 0.03346986925128903 0.031673576446135554
6075 -0.27077916199258345 -0.0029409280955902256 -0.02206810664738482
6170 -0.29582469819154916 -0.014085145532185856 0.062199907250587924
6084 0.06381413790686347 0.010370140231118118 0.03990270798805613
5768 0.11834202458839266 0.048646541867985615 0.08163971534606845
6169 -0.015296665207638222 0.16713784905412718 -0.01684587560975643
5805 -0.06463116179130561 0.045961775245446895 -0.05211305501996588
2556 0.08367332309213779 -0.029371660500791073 -0.04228878702165781
3696 -0.054928541656388205 0.06339746660622729 0.09566745402594146
5883 -0.10133841240528782 -0.05768433049303727 0.024214274688019385
3427 0.01574557503684634 -0.12114687657569166 0.005237173252990859
2815 -0.06337421431249361 0.024408881141285158 0.15310009222576437
2630 -0.08896012570314629 0.1165989221392241 -0.054758898324361295
5140 0.11890108218765108 -0.0827152782181423 0.1918524995491965
3607 -0.0598939060713893 -0.038371363956410144 -0.022987482373497153
2642 0.01896032208158367 -0.11619157835025176 -0.03132885869147549
1911 -0.008605943333092184 -0.15902169329084057 0.06938976523396365
6089 -0.043916626547859314 0.04603749888168534 -0.07390265383191379
5945 -0.13405796280132942 0.1598824722926509 0.15961296153972887
6062 0.10977033433201938 0.0007841406282978504 -0.04995112429960748
547 0.0680010645985658 -0.11086416047739113 -0.0510913309785541
3467 -0.15001474640584336 0.02888796263693815 0.10771439251584396
5341 0.07601484382429186 0.17890255923048123 0.02279176499515359
2716 0.17875535432994424 -0.01539058912547413 0.09382991651866399
5553 0.018508688768770487 0.06790636174897978 0.19211004380587882
5064 0.007692149954594061 -0.1948072390329286 0.16352400630346675
5293 -0.06210764882456647 -0.05987011136971442 0.10560042408484877
5242 0.10406925855554693 -0.31499034716238733 -0.004046745808427646
2069 -0.026917332261561185 -0.1022954365980559 0.05157019995944464
2674 -0.015296882142227516 -0.1742671563726911 0.09264941810082068
2083 -0.1085474439020776 0.028258106030994188 0.11555242663717677
6149 0.053128917699515416 0.11857663754452125 -0.15879899350356386
5975 -0.01269737717422143 0.050454490237927266 -0.1366892985919026
5707 -0.07177282554323336 0.024514391194245512 -0.1340348420362971
5584 -0.15345174940772746 0.20557621921797786 -0.1443644991460604
5496 -0.06777090890783796 0.05200722296295271 -0.07620938311719222
1895 0.028146126325085494 -0.08936488815855709 -0.04255172640179557
5032 -0.08254707346874872 0.03529121695723385 -0.057824189441691244
5347 -0.06979271678062265 0.10213778299794193 0.011383556410574973
3903 0.09343170973618817 0.05064846036979291 -0.10293427489582645
5141 -0.26690618003062555 0.002812726127172491 -0.032841208396608715
2797 0.11370578221713538 -0.011912963971323779 -0.03478974677006399
2016 0.13948088176031892 0.07961805585785836 -0.135992979687415
5935 -0.001192738544645901 -0.1055131365162426 0.0085329831828542
5890 0.3134646326635866 -0.10347872524658218 -0.01981616880053854
5646 0.17470959771455266 0.06552532858682066 0.04966361133501019
5914 0.12838755582372274 -0.00022100449634712346 0.10097106175423645
5317 0.079258725315842 -0.029452187738105432 0.029774694237041738
3783 0.01684960163856234 0.009508002152580432 0.03262746402159755
5687 -0.1506646947878231 0.02978679778906557 -0.04018455606720631
4925 0.03825370753239064 -0.10609042718546578 0.07273623599098925
5227 -0.0829801145370179 -0.23482908426141702 -0.042679478116245326
2832 0.11253157948163696 -0.05573202629200275 -0.011702109968666451
5226 0.05252478706975214 0.06037925561672046 -0.07837972012474993
4390 -0.0761734352489332 -0.0732866800762932 0.006490668315789141
2087 0.018770464693971964 0.12768281161289274 0.029840276664908863
2052 0.10856278495994814 0.0391967344674412 -0.07890495884412893
1855 0.04727777343453319 -0.12533639611191683 0.04096999206389046
1242 -0.09598159617663997 -0.007886145983933519 -0.032411061851335535
2734 -0.008084479383045389 -0.13126018465787181 0.08372622651926406
2701 -0.0734406432581302 0.07661452416973528 0.07525352461783898
5952 0.034539448042866835 0.05935986375639717 -0.10492152111520961
5578 0.026093445740682748 -0.0127061446100186 -0.08914346413063132
5673 0.19629670628939064 -0.074110377944755 -0.02825034701769126
5250 -0.0707900606333972 0.1082249800487991 -0.012271466518590901
5457 -0.11270281170028364 -0.11091955031129863 -0.10994617384688998
1401 0.14434375562516114 -0.12680239234131435 -0.009224542839229759
412 0.06451234812896027 -0.10580481866743519 0.011783721765689892
2023 -0.05149055209638116 -0.14206937000404876 0.09228174264215186
4212 -0.0950551105254652 0.12416686235981322 -0.06698545457646374
5158 -0.1119625142788803 -0.10813260653109084 0.04568904501445936
5869 0.010497399576218033 -0.09815769287545656 0.18372915152020203
6069 -0.07343481702537269 -0.15864442830825384 0.012609742475265941
6070 0.01792407206989806 -0.05929155482302505 0.11481168713074513
5744 -0.05420022013059667 -0.042976443276361735 -0.15538471858465408
5734 0.0911037475550651 0.13007679430203462 -0.05604051812504833
4592 -0.16771291509797562 0.011494986357932821 -0.03711049110881293
3588 0.08874355271851105 0.027669323098107032 0.06659095222396151
3273 0.05122378816041197 -0.16103886374877976 0.19714640535129735
5936 -0.1757040356782662 0.007409070518303545 -0.11288190946061369
5144 0.121330296593751 -0.10862937145719463 0.06268184583800951
2154 -0.017670739769922977 0.012712783746118644 -0.03569352994488853
702 0.08715299488638434 0.02995836136666163 -0.11894212605335164
4766 -0.1203299532918892 -0.05218177717485971 0.1119436214633119
2890 0.018223496155204646 -0.05771953898689131 -0.15132430465180235
2631 0.018870560342685777 -0.10377159405280684 -0.0329581504680556
5121 0.02615124288375983 0.06616105438422176 -0.0468038580156463
5701 0.14385789548950095 0.15243420986429607 -0.12752086653844177
3425 0.0003222142906542016 -0.11595056922113342 -0.13346012490881617
4679 0.0051455746677447935 0.04932902547149997 -0.05101678475298899
5192 -0.01018348826824376 -0.023921202974387015 0.019479293483785742
5512 -0.06653149248441673 -0.18138806499650287 0.045985547151821224
2755 -0.024886487516690873 0.0678238895794555 -0.05226295718975628
5117 0.009447874646086919 0.07484111896444287 -0.06356302117362153
3907 0.0022727692954943694 0.024314388278582056 -0.04110108114157657
5366 0.06160321345851838 -0.021174269622913765 -0.06305573065807268
1277 0.021171903436817782 0.05750636342891312 -0.061698327219392744
1955 0.1763177131912951 -0.001194040243417762 0.09190769553379433
1291 0.019934867433928905 -0.11217032799888806 0.06057696107011594
2062 -0.007516090440894636 0.13874797287480573 -0.01449352188817745
6154 0.056196448071656566 0.03909999839625029 0.032170331372220515
5518 0.23136196015643712 0.073526658338344 -0.15721728603523352
5503 -0.03422216775380252 -0.07166052179214305 0.05717061917185716
5676 -0.10684273484120548 -0.15749497931352224 -0.03337294163934877
6035 0.12442492694936265 -0.1589191464854733 0.04825239595000047
4964 -0.09582945262017632 -0.12122963173268675 -0.03641547618431483
4127 -0.12200568762435479 -0.10596854456439082 -0.01699291099461002
5633 -0.007088970870607156 -0.03271062450016085 0.0011780077921516932
2841 -0.08130410511258014 0.02915454929210879 0.0016139619101890948
2064 -0.06602013087552173 0.1288850420292626 0.07040580399340096
2066 -0.005008723936709696 0.08456110476102319 0.10236424822744844
2746 0.08725324782294934 -0.0030170519723850733 0.020904781948779087
1851 -0.005028392936137407 -0.15680909321480505 0.020836213318775405
2586 -0.1162867788639377 -0.1016240754484417 -0.09525969377436908
619 -0.029565373466138127 -0.062406569737069685 -0.03594570365241201
1276 0.020381521578489582 0.057338200290347 0.05351392383227677
5919 -0.07470524199218266 -0.13938184154176156 -0.01097847227508842
5667 0.06049008345317562 -0.14159280839530544 -0.12406839157648278
5554 -0.09996026141327698 -0.04018569905601658 0.007590636737960198
5852 0.07646193541175472 -0.007859140286103676 0.060647131717880706
3553 0.040676287741055334 -0.1214540773652018 0.0020238121621133807
4217 -0.1458133850658573 -0.02074349871602334 0.05860585391670468
3284 0.0026529659822147112 0.22586349785813847 0.05279881170860559
5572 -0.17697689822715335 0.11202380228691436 -0.05783680172744736
4986 0.056156847304599744 -0.08796185439272641 0.0034494531758310267
6011 0.08422110939826617 0.017234757924081648 0.1198793225115625
1166 -0.088656285817636 -0.036843441468417795 -0.01665937594151777
1863 0.008609273521525473 0.18887009585959552 0.0718042647142568
2837 0.11778045607633088 0.006631994155179196 -0.049012537171072235
511 -0.03991718253429842 -0.15137752453133144 0.027519472851641
1247 -0.03644522612052144 -0.07102330347291273 -0.034072106934869444
1245 -0.052356163165230056 -0.03653277883359193 0.09460798102641188
509 -0.03204796199924082 -0.024261948421416685 0.03448007339774921
1189 0.12306542135781959 0.07261717102083445 0.022201991404929688
2641 0.2171112136853252 0.1089717332039062 -0.03150693909774459
1439 -0.06846106090725416 -0.033296417039808304 -0.016626504204682684
1305 -0.05787198393336457 -0.03106654777614613 0.05128333042447142
2754 -0.13824595686937827 -0.14492791107742153 0.024155181782073605
516 -0.027451838368573383 0.04187247034560454 -0.005278503312934651
2895 -0.06472099310863585 -0.10794967613729277 -0.0023644569133284797
2019 -0.07363807484835504 0.050592678383132667 0.05012776100676071
740 0.03059960665744497 0.028834745272958585 0.11395120987690446
1270 -0.038069451536825734 -0.037612317075248695 0.0011816851913662475
1844 0.03369436863896044 -0.002147149948320326 0.04582021389570429
1640 -0.008104027991674157 -0.0026224453134771133 0.03472551788469647
1770 -0.10206632399590246 -0.06691665230083566 0.11195605495517968
984 0.02023635638039876 0.06636962161692805 0.09492261858096857
750 -0.0413159640886231 -0.05104236799292856 -0.044721829633927915
1534 -0.06728841220237729 0.02500312107453017 -0.00819492932760583
1413 0.0045919556130109215 -0.02324162748261947 -0.035377183336197104
1235 -0.08915173039827012 0.0360044568942611 -0.005070359110249394
1398 0.05109679037927392 -0.005176920424735543 -0.03852170982420722
713 -0.057980646389300096 -0.15617884076153296 -0.12687529759645372
1199 0.11978168936393513 0.01843654878168345 -0.11388106368423362
1207 0.021687281960925 0.022989111394797743 0.055459512553847276
1775 0.10200133098651035 -0.12106354256745828 -0.017394394449427628
3041 0.025001722521580592 -0.05224926217530468 -0.11280676766238053
742 -0.09747905185084636 0.016520325643914868 0.04203779676068658
1525 0.04490456814673199 0.07625693720509702 0.0037487053064102194
2918 -0.022776200023968667 -0.02041788389956187 -0.04924064577168514
2404 -0.02767326901427063 -0.0481104943062974 0.02544385073242832
1633 -0.12727599229037556 0.07850952055393133 0.015629368429516295
904 -0.21750990811686524 -0.07762181417259265 -0.12398259745496948
2367 0.18227457155919471 -0.0038115894245874526 -0.01930043252279677
1427 0.010978474714843343 -0.04660909724644972 -0.1697378464009303
1381 -0.27954102281878157 -0.24576554670924444 0.10506306892028244
2170 -0.16666242637832884 -0.02180851296134534 0.06403574337947165
2636 0.001716308600658873 -0.09269071382203921 -0.05945175525148656
1321 -0.2376310598490537 0.03830082743715743 0.05749595601530041
734 -0.015105499499224163 -0.18381584747477386 -0.08187685673057586
2830 -0.1840738830787249 -0.12685382036734957 -0.07956265446297857
2635 0.048231178977020346 -0.1901863552073167 -0.07619721239488333
932 0.1899035747639535 0.0762028361548306 0.014582562434531068
1654 0.02193067155070528 0.024069754844025786 -0.10772646668376473
929 -0.02055770799102476 0.06359551511596175 -0.07001602238853201
1074 0.12143983355970461 -0.027154496974596827 0.027437393012925852
2398 0.021512012568582 -0.042785075031241696 -0.046630697320199796
1553 -0.0037925307602862707 -0.052257197812444145 0.050870865114611655
2934 -0.0012522534329365547 -0.09141243605752623 -0.03196274096362793
1542 0.07522154970805058 0.11312167528564353 -0.06028499502050515
1781 -0.08933382415525257 0.046213449514343155 -0.15248279939117984
1471 -0.006903443889568749 0.055104572722893014 0.19230747243506147
1390 -0.027377629032506456 0.09782244597409692 -0.07438623431963791
2049 -0.13335932241599205 -0.10814278880414406 0.08262391132307023
1266 0.04785420177738078 -0.04132629418472385 -0.06975377698614715
1992 0.01971269887635524 -0.031047434841283004 -0.08284192946213115
2742 0.16729418320678374 0.15412210744350707 0.02618657788901331
2585 0.06509723580748064 0.14765452493918063 -0.07765118812667623
3144 -0.033784992597980366 -0.0035229437871782 0.05701837466304993
2479 -0.021588797929953715 0.16192812447516186 0.050354395478577674
2515 -0.012317721675736013 0.012476668995687293 -0.03550888970091924
1608 -0.06925027027634298 -0.1439273487920661 -0.029558420633834924
1639 0.25885744878050265 0.03164630060315396 -0.10327019563383336
1058 0.010462945651776492 -0.06190712262266944 0.07884394514952871
1514 0.02012582902401983 -0.2297134090690112 0.23562145016806274
791 -0.009430664652996811 -0.01564232920642966 0.032733960006872606
1661 -0.12399126804972854 -0.10376783490873895 0.08954447036968032
2989 0.06970268104191173 -0.14848177256787573 0.11794409288475326
461 -0.020654901454115807 -0.016005132519240975 -0.023036962825813842
1326 0.009773086798330617 0.11193809007839478 -0.12769201353037685
5058 -0.055762097437800806 0.020473257478017468 0.07186359503191987
642 -0.02537083545657761 -0.11251854023789282 -0.0342944044916197
2851 0.13384330596018718 -0.2858334157829669 -0.04015945114205328
892 0.136530320976971 -0.01822760029857407 -0.04412906470419914
911 0.12012865505696929 0.1365358774572231 -0.28608271741678726
1405 -0.019801196742375512 -0.009119365337310253 0.07754151877161684
1142 -0.1567263381877266 0.03783587082723979 -0.02360137770781555
1753 0.005847829995562166 0.19828382345725504 -0.03484586549078866
798 0.023418526007426978 0.05608657132644761 -0.03135350451239485
1795 -0.05924539469856473 -0.07095144737751405 0.04429465629215451
1025 0.04984747101919594 -0.027913450293803967 0.11280500997490328
1818 0.01788055050841648 0.06919364154380914 -0.058654789771133864
1786 0.04807629851569713 0.006755947031792456 -0.028747663921006375
743 0.10410994779439355 0.16285617799278077 -0.08885410047365193
476 0.010478938662163512 0.11787020863139024 0.09022348043689854
1366 -0.07157707088525006 -0.13128414582445125 -0.1096590870279531
673 0.04966220801745464 0.19279120951281598 0.009270386554988842
1324 -0.12517837733673207 -0.005719464819523676 0.006370880736861434
377 -0.11264210323734986 -0.0062347931705286595 0.035158000160200736
522 0.031870511819528935 0.07167849973674231 -0.09346858172552103
639 -0.07483940911192467 -0.013489456722452452 -0.012100057649362467
1191 0.11406313453655575 -0.05631870811504034 0.06163099883219462
1050 -0.12236683876393059 -0.10893696581483206 -0.05142352084210983
1691 0.08120179737285917 0.049204839913959214 0.0729402104410929
1616 0.03895111835358034 -0.0778216215003754 0.01628289630579982
1527 -0.12506968667231616 0.05039493309311899 0.13100660827325225
1516 -0.07871376126801188 -0.016573716018974127 0.004272880141510355
1034 -0.02384349406479696 -0.036717891182586934 -0.19420038996503583
1022 0.08735716112265658 -0.03301328524167614 -0.06247590170834553
504 -0.06536708266287325 0.06300574440188357 0.19191954834575725
614 0.1030106039491126 -0.016947327449105327 -0.08543580753544545
426 -0.032795553431505295 -0.25421602813447897 -0.014289881342114171
1421 0.028117571573091138 -0.03976171192757189 0.0030037732901037305
382 0.04533010622121855 0.06576402104316913 0.19299116729092614
1169 0.02331860721028886 0.11988848043527353 0.08722779501455015
1384 -0.08575325179034339 -0.0021553890604733145 0.1366686131309479
1230 0.05073513843460738 0.003547007337575547 0.0005343644560696177
1214 0.04237447438273716 -0.049759517646204995 0.16999046410054452
678 -0.16055370279917763 -0.11093558494817748 0.03885108152489095
1337 0.02492888737416985 0.23543411676342454 -0.15479797956478897
1647 -0.0360932173661413 0.024702632654981425 -0.004451617451285668
1730 0.16639270780325555 -0.11814485103603808 0.06138231329016288
1470 0.026412381027470636 0.037349266062383715 0.07751488579245445
1530 -0.029557445189506266 -0.07600333629790595 -0.02749722712207741
794 0.10891470219064317 0.06957882715460136 0.05117448375036367
705 -0.1272005003777532 -0.07434150832337849 -0.04319744339809284
679 0.20698721645539186 0.12497382182005999 -0.13633784182518768
1370 0.06636353208194845 -0.012611459912682917 0.053578100958887306
2000 -0.08747385242646546 0.08668133296469688 -0.02100608182067336
1125 -0.11604722439419507 0.004846068335445293 -0.05267901235406273
1463 -0.1126804379017087 0.08268627834948178 0.09871655889620912
573 -0.0018532862067946326 -0.10343101099113007 -0.021521313219887518
797 0.0003173759042340838 0.1344686951381222 0.019306439437049287
942 -0.00028975949334981294 0.13160448514920295 -0.11110438441992884
1360 -0.19244043405532832 0.09309192993694901 -0.09808340969421477
1684 0.05074006123842586 0.19470490108075833 -0.00900184271615162
1765 -0.06107431716679665 0.024439266613254115 0.07438023564983676
828 -0.08314613466682078 -0.06486688175649064 -0.08223155409030844
1643 0.0015685453661937084 0.05199117799490021 0.024725520343598432
1727 -0.0991502022266833 0.06611900983125628 -0.007844938438959784
1108 0.3880334927031675 -0.0689721137466978 0.07459498189903958
526 0.10451359223573929 0.09213321900879574 -0.05472459933807253
1402 -0.032394283512053965 -0.11381839933390792 0.008308018429696626
645 0.07819519436437083 0.04659547645447146 0.06777773636692738
539 -0.10163102981734641 0.001957652999787519 -0.026301644128945985
1281 -0.025811463655100855 -0.02911285631916971 -0.13452475564729427
484 0.009219798401114091 -0.04175548372389999 -0.15103357222508873
1334 0.0559520365012187 0.023069779378638633 0.02908586783448585
1261 0.09673567526318437 -0.08178591661788352 -0.12080898460331364
1886 0.035361020013378514 0.08894065394741806 -0.03746866128780728
1297 -0.007377784095578922 0.1496987176762017 0.03896173018661015
1212 0.032942573803304856 -0.0028235614777016764 -0.0003445466528066866
1756 0.014853234078592749 -0.05491035052476259 -0.15603775368551587
1726 -0.15401029343258693 -0.0011926227406063306 0.13494345334987703
1594 0.11153167309970825 -0.15153235470558676 -0.16837227848969497
1032 0.2226856721908967 0.10900459250135586 0.08772946801081227
1531 0.02208622009746573 0.11261919045960317 0.19007063442195218
762 0.036521945558103244 -0.09599877964280597 -0.007171948424625291
1779 -0.11631479433428703 0.016844872033463847 -0.1994242178110923
1168 -0.06068244620106279 0.10649205419193608 -0.06006345872126643
722 -0.12722766980632974 -0.011204873385787061 -0.18321130000941982
1240 -0.1465580938633842 0.11226770629705275 0.08158112528780703
665 -0.016098604726997003 0.05010281705304296 -0.030066833952300295
530 0.10559218489581425 0.0064348749553115436 -0.0261289389257245
571 0.0793785771500504 0.017418379970117307 -0.2199457114200797
2906 -0.07061443107654045 -0.05912445301767588 0.05046747988182649
1145 -0.10844831940456123 -0.1542132454166925 -0.014995112598868442
1348 0.030901060168331863 -0.021195280119284874 0.11435284653363807
1410 -0.06520732510411095 0.10535971444032229 0.06747496327986968
1121 0.03637913788950633 -0.04074860764016855 0.12009719024686258
1113 -0.11292177539865664 0.0659440524603922 0.03527183654829329
1338 0.031219671481137405 0.0057174363446825804 -0.14236211357919074
432 0.08025740041663167 0.08048260473685155 0.07741345133332156
1192 -0.16105622038415465 0.09430090905427492 -0.041420985117851056
482 -0.013281037943856096 0.17812799060783396 -0.027829821545379684
1766 0.010967499925252484 0.050416474097414885 0.021041060828390433
958 -0.0306663298976959 -0.011337372351233197 0.14751888860537446
1511 0.039546719166280477 -0.03073817416598877 0.014581689917356574
1739 0.09624327894952617 0.002121656354761248 0.12375001731366374
1718 -0.09227523463117153 -0.023887263709488914 -0.03146003686981176
391 -0.025674060957234922 -0.13256126155273837 -0.02795279153843326
1176 0.12519152862813976 -0.005436050821039443 -0.07959091013321476
419 -0.05660802918497221 -0.028409339056018893 0.047197999539218785
512 -0.010495303548608803 0.0431607201442827 -0.09198965083125873
1397 0.13310824767176183 0.06156925624271018 0.007283437657572174
718 -0.07331428205041624 0.04893232699110954 -0.004905785158843032
707 -0.1096024889813031 0.13238708875449642 0.056196040941758695
691 0.09647570805155312 -0.1400360078084143 0.16427384457710031
490 0.027754190990194594 0.016535817122629817 -0.1688713252228235
1260 -0.03977675434440184 -0.1388794271074737 0.11094537384060237
456 0.04589909435984849 0.014304362949732108 -0.10609602555058807
1518 -0.032885675219225335 -0.1262689394057548 -0.03843542893627122
1154 0.019591136172267234 0.015420792817600887 -0.10998147079665616
1100 -0.1667517729847051 -0.1292416814576284 -0.0757387692044726
1629 0.13081343205611531 -0.04341283231567285 0.05130531165306733
643 0.012179356593708626 0.08441645128411421 -0.09720512661572113
1755 0.06753350143682707 0.020735797404170593 0.007420372347755922
1096 -0.12195567814804763 0.03187007158629078 -0.1276223650005054
1581 -0.06633755660050636 0.13192013604812192 -0.12953179241504142
823 0.06813442912457324 0.08656019629053721 0.02554195362929429
684 0.07393691062095745 -0.1230679914790824 -0.07958347428598324
1151 0.07577458558315367 -0.13089081089581434 0.04932788325747231
631 -0.09688918401607546 -0.011029920302471706 -0.196705154295272
616 -0.030011574254160463 -0.03270540326997705 -0.09385858592796573
536 -0.11762383333339937 0.08184047160119653 0.18469680128603205
1399 -0.10730404868162066 0.04566562421121063 -0.043986327328186456
1238 0.03349982682826713 -0.13937678920633298 -0.014101749670766089
1243 -0.06098344197666214 -0.2253809004419783 -0.06004565891024556
1339 -0.017888229403567824 -0.12436418685290385 0.0009357846544430382
788 -0.0195059710737525 0.0399609258073326 0.13803867405346576
1186 -0.10888467910754024 0.10201182793520303 0.016948300119287
799 0.08131780701080758 0.04479502807266931 0.11552841466332327
1219 0.043415118544525025 0.11570822395147905 -0.05796975677198901
1803 0.050104171898139566 0.014116075200948494 -0.03329950452200575
1772 0.011232497815670248 0.009825100046239207 -0.13368067529743596
1687 -0.0321128933091321 0.06017352059354845 -0.14746591576514004
1714 0.09759696807423468 -0.05706717911841163 -0.04830726822393746
1638 -0.17045263199971217 -0.0168341397211065 -0.05735769242524529
763 0.016601157035864397 -0.09026473227435154 0.0912133778736416
1484 -0.1332256412238589 -0.20685260918529608 0.0783646922949738
805 -0.10830781785024904 -0.09295844790987676 -0.19198250389292132
865 0.0030849564075373787 6.026836051275706e-05 0.03627597968685281
1528 0.07701843939674816 0.07079146866922219 -0.15458215434211242
1434 -0.0370990420729137 0.018216498362665826 -0.04476200960712785
501 -0.09707556651620944 -0.0003577881117057466 -0.05003454773746229
546 -0.013252348981353673 -0.011760863047987711 0.010208789808433287
1449 -0.1080246162064382 -0.10462380617568832 -0.08857076974008643
2169 -0.13242364989844305 -0.06192980317878547 0.013714268054094366
1725 -0.018035740446287495 0.2020132970151697 -0.005682475541386104
1172 -0.010245047031987392 0.03563864135184755 -0.1507010964918401
959 0.08665069749880712 -0.037757048275457256 -0.20264752288937404
1645 -0.014522704674243062 0.1293655254264186 -0.18259601916301785
1556 0.07083373137293308 -0.04726151546759188 0.0024447896157520597
1140 -0.02608560646752114 0.1072584584323971 0.143338978236504
1696 -0.07605112921806219 0.04784540841595872 -0.007777873909376741
1520 -0.06377226400640058 0.026016866681314386 -0.13063355901562204
903 -0.022401911566190768 -0.01519313896595299 -0.027117371502908574
1535 -0.11403150214175173 0.16920261894854496 -0.03897545395230055
913 0.07143063710308324 -0.02234193428454354 0.00404480195718724
886 -0.13201432097813431 0.012483641952482333 0.010829380280596474
524 -0.007539041830024112 0.00019095842945669392 0.12124944046178432
508 -0.19043787497750186 0.029611709319705186 0.014806089574932634
5074 0.07619699264773529 -0.11364691109073993 -0.056970541611674724
381 -0.1790653653887391 0.04263302299690164 -0.030082704439435108
1104 -0.04927068389015556 0.06824159440951012 -0.039273441189630706
1195 -0.04661193859013968 -0.09922665840697334 -0.06040038568257805
1481 -0.016929831197261803 -0.0035794458700000795 -0.04894981320815299
1318 -0.05913425905609865 0.0377905299163665 -0.03335961531253665
1303 -0.08535191619604171 -0.14484846717826078 0.07831294613165088
86 0.1295624038611122 0.021359693613618433 -0.1622569745828246
1378 0.09620665569030463 -0.16029692965414327 -0.07864370555022338
1325 0.13542673932602278 -0.03213395687417042 -0.13722820745315273
1198 0.06738563041902373 0.06799115247168762 0.03829824848874079
506 -0.008556639162042067 0.023844488924883556 0.051137066772751184
1452 -0.02499187936037551 -0.04243745361766205 -0.0757978903996137
1561 0.18993732315836429 0.14783133057456496 0.03807661716904777
907 0.06072113335101022 0.04881707225936411 -0.018889409634188094
1491 -0.016639741767088302 -0.05989688962752689 0.0040285853234947756
927 -0.0652993621562924 -0.040892400394398724 0.12194590328259453
617 0.03943320781354026 0.0821483950511663 -0.06544823633435408
1239 0.136816974675121 -0.09279305359154862 0.09173313139632208
822 -0.06200359859119424 0.10277466770245847 -0.004612093250057487
1442 0.039372227683743204 -0.11263246984443251 0.0052815450152467955
78 -0.06703463926225021 0.012875014281602466 0.0480630299004013
1578 0.0041762864196069095 -0.13079309953235782 -0.07903457977336341
1021 -0.043185192575224574 -0.08496038112507871 -0.1415213933427929
1165 -0.06672103756936806 0.06298548596266512 -0.01652403282217263
1141 -0.0297908828434402 0.13484286353872946 0.10130858912663468
594 -0.024269886276519874 -0.06098982502430235 0.06411708181599722
489 -0.0844332497811499 0.08620536139844702 0.03435752453947222
1201 -0.05662041094932837 0.042299043443116115 -0.06511747871842895
1158 0.07828857915182555 0.030942055805140922 -0.04642247750226722
731 0.08150005638546873 0.13040175035217677 0.03781854775754563
854 0.005672268730810406 0.00286885145676569 0.1780502271635842
795 0.04702857005506936 -0.08768168514476188 0.0477613561382329
1570 0.01941933906258845 0.07266577913966851 0.10620430554082759
1446 0.15545149159990018 0.139100856491302 0.031851461746970205
467 -0.0016510432510434304 -0.046083201165986395 -0.14154989057714018
733 -0.12724428158525505 -0.12872297847676778 0.08261535304042116
2611 -0.10629123885378543 -0.06734169913747982 0.01166226916090673
402 -0.09583616141725662 -0.0075612569887052155 0.027022875561971228
677 0.17546127071892714 0.06736002632159675 0.10579726359782309
1699 0.10495705881460277 0.006970265831568137 0.01696157780392348
1153 -0.1639153837368914 -0.07984464221052946 -0.007441871250680826
1033 0.1651610152603101 0.04046435449049382 0.05593632326330364
1124 -0.014508054561064208 0.0915888796587095 0.1261042043574231
921 0.11086343798837164 0.16605482803160504 0.036957581486756035
1686 -0.06896251901736805 -0.08257501094263127 0.02309543245446191
965 0.16154952721704294 0.1667004361602913 0.03794589934992455
1091 0.01838234198096555 0.043276026414268955 -0.013068242511492204
1487 0.2312763411254273 -0.09024581858506599 -0.06688390916381819
1728 0.061262189172221454 -0.03496054284475796 0.1393766186369453
774 0.06218661761668719 -0.09135679681790307 -0.1467574459657212
878 0.012671122796396707 0.015872688172390622 0.0850374525298809
1327 -0.05317415871179316 -0.027208292294354917 -0.017049940799112193
561 0.1015559434755961 0.029483041946885384 0.057299135198873835
410 -0.06214566771438942 -0.19515469198996743 -0.08449562155744335
1377 -0.052322992463673765 -0.10198877204917707 -0.02340145132641865
429 -0.008184150062003084 -0.16173224225313373 0.013073215831265052
431 -0.05592683021788351 -0.07316070125801771 0.03164301892050915
1112 0.0887495136606306 0.07807396259760888 0.008809884786700386
1248 0.026374401979717233 -0.03450345571499025 0.02761264800311318
1475 0.23557117034237832 0.0424631244765596 0.04690926836458401
749 0.03925311590124833 0.07493041159690804 0.1677226838841424
474 -0.017155678906431448 0.06664882616882199 0.036034089622261664
1652 -0.14751164871568276 0.05137497602556927 0.11722793803394801
1642 0.04251975738814379 0.11555480978981911 -0.05352091616761523
1748 0.11825173437806925 -0.04047590077665806 -0.017888450522194555
1485 -0.0016944804064025765 -0.11172231607723901 -0.002633367899659022
976 -0.05918132885445651 0.11462074661065202 0.06204945657072368
1292 0.06077230758455122 -0.031927127596984975 0.03595724901953002
672 0.0903967696904164 0.06552423810440518 -0.09294488323327427
625 -0.056319918998888725 -0.03160447533387699 0.10185519397678897
1098 0.046087094365694754 0.2128761199368887 0.0695886223721657
922 0.009483302168439123 -0.05390603134046725 -0.03818641946595507
592 -0.06614085877218498 -0.12419053216219779 0.03201912953150156
1749 0.12061561222469463 -0.1590467323555502 0.13878563422489212
1346 0.01948888096456377 0.031015987939641367 -0.10191146049505506
1216 0.10868325060564381 0.0687938686362848 0.045514024207621795
1296 0.016298122944700358 -0.13242652193979595 -0.04660223401463853
1782 -0.006626004584054306 -0.06732804115560172 0.06589718597998644
1372 -0.08217165769163833 -0.06460443298136066 -0.0255319248541475
1423 -0.10734993118700169 -0.06062270919375397 0.0569345441784972
1444 -0.08646515552609228 0.11075675557155272 -0.03485639598607782
127 -0.08235967088657473 -0.07022274212630822 0.12049675927452659
782 -0.16988735017269574 0.11541569135371332 0.010341230849619711
1771 0.14369682691165614 0.07580445254846868 0.07691953190223436
993 -0.0047702201462701144 -0.13390123468372955 0.07243270160301257
1435 0.05557912198026834 0.02776704615117436 0.057960477393128415
1342 0.06882818623063781 0.015535112527046993 -0.08598337289734333
624 -0.006183307387453334 0.15618597592626757 0.13057758585844992
332 -0.10279207342445576 -0.11283949427827689 -0.25286316350734567
1705 0.03943809003083021 0.03758295287788377 -0.07620761771891482
1709 -0.03697257158562712 -0.05278453095658144 -0.0440914813164189
1767 -0.012804508600933488 -0.02578701277596429 0.06505360423143189
1538 -0.06732615983490328 -0.15972636390211106 -0.08984918221122076
1587 -0.039157928087396904 0.057070021331959715 0.15864289030020567
132 0.31157212072252227 0.15206119829199677 0.2336565944441513
1286 -0.03861761786190407 -0.020972087838035627 0.0027386549617155094
1309 0.11080155390129118 -0.08815438263061036 -0.21496967356868876
128 -0.033139330402150884 -0.10256254134429792 -0.14956273472538234
130 0.016398351485820598 0.0586417051186623 0.0992799810930272
129 -0.03247706289360608 0.12480608586516936 -0.08553828131547456
126 -0.17340507357331905 0.06500266732831891 0.1393333049507477
1222 -0.03558748237188158 -0.1658209295539958 0.020932612027745483
131 -0.030540573590213914 -0.03246051964700797 -0.08867930913680729
133 0.02170151605330775 0.14982071420596152 0.09094111209470429
1257 0.015595653209890589 0.01925090987516006 0.059717019706447556
1800 -0.08237469893476702 0.014388481545477075 -0.04118685409410233
972 -0.10330924134907543 -0.08211596904096483 0.03649514516663228
875 0.05719007436958814 -0.06479191001919585 -0.035895523489655926
492 0.05876728372677885 0.002639752861390933 0.10696597958511839
1308 0.15093258501820359 -0.04912869555013914 0.05204536794954497
720 0.13065552093849486 0.056977415954745265 -0.08479349536555661
1650 -0.003627211364423358 0.010254092358400399 -0.05881236024870361
752 -0.06727479690867363 0.0524889626216756 0.12174634380682406
1373 -0.020732835606275646 0.06782153895784444 0.03073947161611434
485 -0.06552059569194801 -0.17047219809465353 -0.03027968000321308
76 -0.01078213148927498 -0.050232521225839065 0.030474770698076924
72 -0.04299333316445721 -0.07762552761231897 -0.19264291755174293
73 0.09411763820944272 0.010252805912577512 0.12907872343846027
61 -0.028709148859850146 0.03254497035907615 -0.05138084919958446
80 0.05619110276702012 0.05676616396722999 -0.01546627807340958
62 0.022377670841557198 -0.14943347369976212 0.28631496225138797
71 -0.15943040478925463 0.06272135136497284 -0.03304589116350838
70 0.1044318620177216 -0.1936352153078283 -0.07056788919866024
79 -0.0956910829667331 0.08055579935069093 -0.23725195977276833
82 -0.15198048439017678 0.015345342879422061 0.20977197490974434
75 -0.08935484431833299 -0.18619502475869787 0.013808680829242748
83 0.041142379385188485 0.07041542209638421 0.03169128945171508
74 0.0791567305317542 -0.06589180442930578 0.22034114407920796
85 -0.10621875657473082 0.06667788622894442 -0.0077194685032368135
88 -0.049954326759877814 -0.1316471990184942 0.21687517680103705
81 0.09998056621200074 -0.11208536074653104 -0.16931761771251796
84 -0.16927475123740515 0.09801899793825139 0.07330571923657758
1295 0.06081170915767755 0.014614954619408899 -0.05095573931373876
373 0.02834115457490271 0.09209520082940403 0.01920821400399366
90 -0.009868080074559587 -0.04143973748943137 -0.06942953366854668
89 -0.05750838195671635 -0.2832544350205811 0.06576929276252935
87 -0.15948097864295602 0.1519346586845413 -0.11882067052280483
134 0.011593103719176804 0.012700137962438084 -0.16487593287916189
93 -0.027410700566981368 -0.13353042430977807 -0.14970696587584437
138 0.03542098778576504 0.14153241538704733 -0.04158070620161402
135 -0.06532309133536779 0.020805427530542597 0.1275269125033208
136 -0.2222297584987012 -0.033492655028857246 -0.15185120536447042
137 -0.013863860976111291 0.09701244211300707 0.06487929268537787
1244 -0.03237762946288758 -0.00027586972027947537 0.02527678688556707
478 -0.017258123678014412 -0.05086687165091047 -0.019185727715569062
91 -0.1209786878480068 -0.130881458386473 -0.1325295443443053
161 -0.03099490069001959 0.08602868789490684 0.03580102368223798
163 0.05199492826254374 -0.03225460082055434 -0.054237555123825096
1711 0.17482035984060337 -0.05912793226116246 -0.13982126182046867
160 0.09050192114681116 0.1348057429766202 0.0480649222402129
1809 0.07124917923761316 -0.13524355343027739 0.04692363920504642
164 0.12891262752737917 -0.0955225085285155 -0.0029306823741321146
1184 0.1672219477411578 0.004018238134798964 0.09426141332305134
158 -0.003245307869421704 0.20384161995333472 0.15223163578165586
581 0.009248725061017834 -0.05518409300648184 -0.01251552987429357
566 0.005606226251102937 0.025802929863454817 0.07889348190219744
1882 -0.15627621238678813 0.005515737751532824 0.048306398587148226
1249 0.10472744662641673 0.054407632088235416 0.06722483106755103
1997 0.21426235789762235 0.12376009526584224 -0.04015650636357637
491 -0.047769726584890905 0.03411611177598903 0.018957567152370233
2798 0.035173088998267814 -0.13386537054679995 0.04500765486974949
2907 -0.09727655162785541 -0.03379748351293238 -0.0050523867166893804
948 0.04869331650033128 -0.1737073014792308 0.11982088490060186
1704 8.642878057487681e-05 -0.31096844467327883 0.0867017924427993
1467 0.11462352850150592 -0.07625450728825942 0.06965383068239081
1626 -0.00417078610676308 0.008510247564078394 0.03977506488849274
1617 -0.04112668342666709 0.06161729767017572 0.1493710935032212
1569 0.21368433673230047 -0.04616212273754391 -0.06926461117050628
5212 0.15382009392282597 -0.060494385207732884 -0.0608785124381025
952 0.013452934095816797 -0.018567326966146325 0.03042467412166576
754 0.005708770172514109 -0.10234736426597377 0.08977416937641805
1084 -0.05312975021955473 -0.027337029552112667 0.05814218768037241
5039 0.1357166225196696 -0.13315110973796074 0.04557106776560938
627 -0.08360560992583582 -0.05561319488718999 -0.08056374000710133
2192 0.07482312581294347 0.0650561184087437 -0.16377322576728148
717 0.08183838415148263 0.10977576464761438 0.14282216384328242
556 -0.04590974241630269 0.05833463134971818 0.17526024731079823
1967 0.022059649608722795 -0.01808442153986427 -0.1504032640482027
1563 -0.010415623650141972 -0.12374610519070665 -0.028505988665310546
1110 0.007820997153845917 0.018068296133372404 -0.11547972233876028
1657 0.03423060644657771 -0.02037634201256608 0.05810939768839028
1128 0.054195289590745425 0.008439383271479294 -0.07654304709276667
1715 0.12622512816738424 0.09161593616924722 0.033786113937991524
2334 0.05894268207307636 0.09276184925639072 -0.0705260235772511
1218 0.21177148156201558 -0.024910860779775473 0.018151214140960006
925 -0.06690646685520985 -0.023131499741769118 -0.069172457148731
1580 0.004378651895942718 0.07958884493374155 -0.06155981795029276
1953 -0.06127342895181649 -0.00023740619869060814 -0.11619224495644237
751 0.09340058430664758 -0.20462989165142992 0.050200012031194646
401 0.08124824623979124 -0.15582521550958356 -0.05761659202419353
418 -0.005443737693492266 0.10039894243011252 0.16007372557113728
2799 -0.02528872736137357 -0.022592121449188644 0.08477289049863694
1768 0.004670036414563712 -0.08773949590031441 0.038528514886572274
757 -0.1615218771665614 -0.037349029841620605 0.12024094882315241
1751 -0.022163125086562534 0.1245288166562326 0.1493999762512457
1743 0.00016115397383368625 0.11626812319229413 0.11602210268034482
118 0.11820795616786409 0.10402697516990024 0.10813766209101366
1606 -0.04782367818790345 -0.02727970157159744 0.02398450747203555
1143 -0.06674519088403606 0.03916934495883644 -0.00434033172588739
1225 0.1876285287312821 -0.1219323024077055 0.04089352914851743
1122 -0.050939102692396335 -0.038900937967922704 -0.0758840067568381
1173 -0.20919398764213495 0.017236525525158034 0.041370618177728025
2971 0.0040219459388201794 -0.01593420024888957 0.022892104392170792
845 -0.04405534806495458 -0.1221184145698944 -0.12871463808158873
125 -0.026966136820809374 -0.0645049669139354 -0.014116682731845572
121 0.018052858774973427 0.024126296095361356 0.03598799079193826
120 0.05265799093887115 0.01635468608032023 0.1365895554771902
122 -0.021142901832154247 -0.02116018096430329 0.07502046279272198
124 -0.07252145506502097 0.11938878457959032 0.21830623311841119
1529 0.02293893924276069 0.019330954078997813 0.031314783419212136
3160 0.07063206305594112 -0.08100368710571913 0.04740867988893939
123 0.07160503922400036 0.12310357953803626 -0.09294652411508703
2529 -0.10987763188048061 -0.03587765564521354 -0.04129383892877252
2961 0.04059315613688792 -0.01978067433197077 0.05542574415978623
944 0.0174330853597437 0.013223475268735699 -0.08165885196806937
335 -0.07244105681569778 0.018780244570291482 -0.005057584918785644
333 -0.10901520834123407 -0.07213607255527343 0.10138389139741263
336 -0.09937185983777591 0.08441045494193493 0.00372588169231521
330 -0.11954567390657364 0.010848164673372365 -0.044713481968613716
331 0.07505773606019184 -0.049234619653037354 0.081198896703385
1681 -0.025225122692617678 -0.11582083900806375 0.030651994202154885
2987 0.00023336119068750188 0.06136108180821433 -0.03474227235456502
329 -0.07542199626485764 -0.025879780130890435 -0.09173286044492165
1539 0.1277883627805986 -0.05993541700548547 0.10644387438272143
3262 -0.04535997496363061 0.14874251690755572 0.08425226537487712
1801 -0.03293440267905793 -0.0408877068430183 -0.04245219555449202
1656 -0.023753790697018856 0.004396684387566224 -0.1065361418056763
1148 0.14717987353798512 -0.02135512291828085 0.03744612019126269
1641 -0.1114563958858792 0.05882559783295955 0.10580983139678873
3198 0.05128884900667155 -0.06444053445005868 0.04979745401686779
110 0.04937323280985325 0.02877770355238625 0.15121252493707515
1115 0.10852504306587168 -0.004253053787449244 0.002953363783906933
111 -0.3187964093794703 -0.1687805649933851 0.11298754727659982
2724 -0.1293707873392907 0.024055626185508064 0.027333158915793
2975 -0.03465034201197913 0.07322088409406764 0.06085665566497881
113 -0.04903077069265659 -0.18810609752966437 0.14288361180213266
1187 -0.12848575952075697 -0.011328916394930302 0.016319778415952977
1433 0.03597896423311742 0.09674578021353913 -0.1051780206787374
2601 -0.04813361823841744 0.0023543684175134343 -0.04836973069908951
170 -0.09743065042556827 0.01330389124527151 -0.10047621678581566
348 -0.10720564672374229 -0.05590810665043622 0.08064499700644007
328 0.00585575388184361 0.01838094181775283 -0.00844609240428968
54 0.02670763717900425 -0.3016521542106952 0.16788901683879218
327 -0.06366935805404499 0.0727797302101732 -0.0005531396809968503
53 -0.1754072475906102 -0.18445715698832227 0.06980120686114141
347 -0.020322269819834527 -0.17195542631212377 0.04964452346290091
349 -0.05372793756210118 -0.10079433193787374 -0.2719731038103365
55 0.1340108989140135 0.012756748167749285 0.12442784298601857
60 0.11364510159044607 -0.05813396936769869 -0.061637418024037285
56 -0.05671013609834137 0.10831666401792422 0.010941204323611314
63 -0.05268597524584278 0.08108570261400325 0.10735356213534997
827 -0.024376566394364835 0.07381589780513828 0.049958433084264085
69 0.11940943863490687 -0.18337789811786806 -0.030618927639753733
59 0.07826961166496807 -0.09500549134016495 0.08484175829054987
52 -0.0859692638364104 -0.09441289875380826 -0.012571028369002254
57 0.07484561656898239 -0.12326398491815105 0.028652584991062553
1708 -0.1715786956227045 -0.00953782105898894 0.026310343041602693
1361 -0.053458940191135076 -0.11835189922126804 0.02571638602092865
211 -0.005809745989027148 0.014167379303020259 -0.0014210547971425392
1408 0.03856834965345666 -0.002078158063638782 -0.011660434489658738
1302 0.004576790574110227 -0.004164612314564928 -0.0345620157191859
1228 0.10908591123267605 0.10471628188410967 -0.05464892980958208
210 0.03464172452849774 -0.034188827485477934 0.10095944610890176
94 0.10641098693539607 0.1303893757229891 -0.12503209941666066
97 0.09367688123298924 0.006103895682725437 0.0109076994526907
144 -0.03910807543762096 -0.04070690207122829 -0.003718644146563487
142 0.056738715418485464 0.20791485841146334 -0.029640301305272725
96 -0.1620173599763548 0.12991629250640915 -0.011240051355895828
1352 -0.16387687324270733 0.00424543641508718 -0.101437531059186
212 0.05783198784417927 0.09899385814824735 0.03246491285631839
92 0.007679899608963758 0.15371871691535627 0.09560691323741469
139 0.03328480880912969 0.09467169801707484 0.17643918843526332
141 -0.027428423134824388 0.025192751531655955 -0.040840134467019194
1300 -0.025335944812887427 -0.16740245043371083 0.13546424948448227
156 -0.05241150703961011 -0.00253572819542143 -0.03792995374767568
166 0.0402223772683412 0.14010300296558612 0.09495502576739454
157 0.025085996660082016 -0.09353415888330256 0.07234551519788049
173 -0.0771078839008662 0.0016041553246729442 -0.1391107733658882
174 -0.0006790573685950818 0.03601659835211732 0.0649453101472655
168 -0.18468815326641388 0.08694136978190792 -0.22167647767708462
140 0.05067556379530076 0.08935589115395698 -0.05876402984393875
154 0.20045755261809686 0.0903270645262727 0.06675211229796515
165 0.05565033177192319 0.12215484900734137 0.11461970468309798
167 -0.048218920343791584 0.0285504622455448 0.04480001391950226
525 -0.024248184513101165 0.01095896365044665 0.009340025490313868
1887 0.2210086737241685 0.2513921690874967 -0.006787671192084416
2817 0.004327060049373736 0.012565240713375834 0.00405842197758409
2051 -0.09598995616476748 0.00020140964458694594 -0.06850633860040677
2164 -0.003381010409352448 0.11722969952999245 -0.05925461876189711
2090 0.139425405201997 -0.13160537155124521 -0.013015928913674434
2174 0.18524729764655412 -0.10024878001248974 -0.008917776058021225
2094 0.018558333036910245 0.1155386813495343 -0.09277411938584082
2229 -0.07133944083509017 0.07395573947745593 0.09402977424128435
2915 0.011457294924082095 0.1425972378908949 0.0785395823397183
2323 0.012946776857946523 0.13264642723292414 0.018569091764571086
3094 0.010462176069594972 0.07822462779400882 -0.09728656664274513
3072 0.07622784403049687 -0.09862779894497731 0.07524515945630635
2957 0.14146037414880114 0.04491810177066891 -0.1081364785233688
1613 0.016121049542674924 0.1132925876671761 -0.022008420516686715
2411 -0.1194018651939586 0.008891290646566304 -0.06671303502623095
3126 0.15143542735179719 0.026594563721446078 -0.06099015171917371
2979 -0.050943327096928025 0.024712941408440582 -0.11120947827966346
2964 -0.07432987732415251 -0.19831154353676345 -0.14064900514944156
1027 0.036479361471458235 0.07666299450986909 0.11734808360754614
1707 -0.026386514515927356 -0.02679362125782099 0.013540443133012814
2640 0.014300042472389599 -0.06798319923896964 -0.005542713678941038
1951 0.0048912651920038006 -0.021924980159018614 0.05324018020687346
2774 0.14937031909419302 0.02961783057613133 0.08238350546217715
1991 -0.054974798995745144 -0.0527413050296779 0.061155638148477284
2071 -0.02526045454403142 0.02030258857126847 0.0991892706272992
2208 -0.0967441586206916 0.1294381490658756 -0.11812302945981565
1719 0.06312781399432152 0.15048750603442423 0.13989444786539212
2125 0.09392798711851512 -0.027273313119889772 -0.013857115972926423
2366 0.13291612708007286 0.023456393077367327 -0.08446676422776818
2605 0.05900199005522801 0.03797794613579312 -0.09852823332399538
1738 0.07404030174435486 0.04483035386858284 -0.07475822719669853
3070 0.05576896217367508 -0.04649319594969661 -0.03685565748197267
2663 0.02102647950926171 0.11990584269163759 -0.037137955340086
1406 -0.08011882556438144 0.011352548278756588 -0.05081879303553932
2228 -0.09450746795620209 -0.0034110077931966687 0.041772608466136465
2480 0.08566171031584281 0.054041261021397974 0.16754122939754357
3175 0.070583740114398 -0.057998839882943284 -0.0460195180992231
917 -0.03439438798109009 0.08911014662625108 -0.020190418796412028
3178 0.017552401174509055 0.020660702781139236 0.011788301573683335
2960 0.11781270947181706 0.06488647670945319 -0.03572011125138919
1185 -0.016922588789580365 -0.0635322142992992 -0.05680062680289162
1982 0.017763422256442556 -0.02113905977447099 0.0719159859287782
1673 -0.04385124236831874 0.12140151511438682 -0.02398669078859415
2682 0.0792238872031311 -0.06958161981820352 0.005912389691238969
2364 0.017349511886328453 0.010732788150823198 0.07799896362947509
3199 -0.07868486415986328 0.07603931978288689 0.057803571066073464
1817 -0.13071506861079774 0.0012804796675935787 -0.0792220529914143
2740 -0.15268619812073678 -0.05808884112430559 0.13155284252677027
2431 0.030533191886038993 -0.014763862881454176 -0.10478962172107491
117 -0.1491326375777362 -0.06658296050939025 0.1238529953621602
3200 -0.04187390632279361 0.007862377864296551 -0.08383939456951739
2854 0.0605006731435836 0.06650581079702172 -0.019952588348710783
116 0.09696857978440777 0.07496566287175829 0.06551699358139806
119 -0.06177939575247779 0.10036507805609869 -0.11994788633315104
2658 -0.15902439400568832 -0.15273543656660588 0.040988302054760464
2812 -0.07590018386965078 -0.12740740201189363 -0.11595367160489602
2645 -0.04408186676892357 -0.0197103338657981 0.0647535567883363
2922 0.024383144203541943 -0.006842446842432633 -0.14065228179334405
3040 0.0366420315810153 0.0360649220480729 -0.0017714191941086838
1931 0.10121755260132663 0.030619727144651145 -0.041298827086889485
3166 0.034771241497905385 0.13762324874691875 0.15382264196118015
334 -0.02829564950213614 0.020051659994777957 -0.007030321543083621
337 -0.1912758359286159 0.05173493446618823 -0.09631832144840048
42 0.11717278061293226 0.14729757097009924 -0.10171493635628917
1488 0.028220309806066008 0.2492724208226628 0.03468967424874314
3133 -0.0700913434542571 -0.12719244325056533 -0.01793292149787137
43 -0.14243396213218926 -0.03541869071759925 0.13373002684690455
39 -0.006217901679334708 0.06003153425369234 -0.07245707521228548
41 -0.10113665401450846 0.06570813323350969 -0.0600614689098464
34 -0.05458441535284825 0.026787003200612936 -0.07726493203205231
44 -0.10205276386330311 0.09445071537681932 -0.047198408932337635
37 0.05914949191647089 -0.0508670364463758 -0.09434839404517092
3091 0.022308803009430868 0.18753562242303537 -0.01192813576278983
1497 -0.017900314066136944 -0.1397266975267203 0.013154405583751657
36 0.00864652275448062 -0.094375152180063 0.030409236440250554
106 0.06868502118656218 -0.024741034804792943 0.19270685191084158
109 -0.17737511192091568 -0.20900274253179085 -0.1287317050145547
2715 -0.04564868725773229 -0.06413643108559948 0.0644968881558816
114 -0.08839559227490382 0.017284689614074825 -0.02978773694582632
112 0.09423593559328079 0.14258556151115478 -0.18420389234773057
102 0.02793367620000379 0.032254719464352904 -0.018260345915972205
115 0.03831374145042498 -0.023633414125335907 0.09284393937909272
108 -0.20389795479488218 0.09370029136952233 -0.04970522729513946
100 -0.15420986294014172 -0.008061169007703897 0.051182102990243686
99 0.03050696976077074 -0.032617017571327775 -0.10500988508880704
2791 -0.06637765902905463 -0.04528922013549763 0.1836891116069745
103 -0.06035200327740888 -0.14397766497988798 -0.04953168886662572
2606 -0.04655331216026223 0.04007711578189469 -0.08938047849314754
2596 0.09770198005443814 0.03402473125190442 -0.2354742714094135
1783 0.0788316340994576 1.3230890722810106e-05 0.04927129860626203
2567 0.05025989259505889 -0.0437938181594543 0.04150068963141734
345 0.0010965888176644283 0.1655230408912314 0.02762386970844649
49 -0.026732938204129524 -0.13184887122181965 0.0030525489488760927
338 -0.1323694843225341 0.09182357468329208 -0.12291153557361126
339 -0.030489055357210956 -0.12599687102736046 0.019199551406642864
344 -0.009902632876017142 -0.173421414670537 -0.14927216572999835
346 -0.013117407790384773 0.12944803870678603 0.057171370111591166
343 0.13427264581309561 0.07263881357751303 0.028108122645456163
340 -0.12982925647936822 -0.08322487000115267 -0.16473205072043562
341 0.029831159564042798 0.21996320442246528 0.11019650712699855
2247 0.1553820045611786 -0.13441491562754543 -0.061865830423433306
264 -0.17881256965823858 -0.1633695108428932 0.06897075246642867
261 0.04742721111562821 -0.0656078285593406 0.11695817638539038
342 -0.1287817436189464 0.17985786548986435 -0.033508676829338474
5038 0.1392309496411083 -0.0671509249361107 -0.10885645309721378
51 0.004554958218816225 0.0008979337813165254 0.049522818428958254
50 -0.017237754411241653 -0.024441489390642626 -0.011100371103898443
45 -0.06414338326957864 -0.09725265249809296 0.06730769291541552
259 -0.019340172922157686 -0.07114529071593653 0.008922099833413074
262 -0.1515678379361934 0.1162291554624511 0.08689800323090449
260 0.17774590253926945 -0.02245519123061282 0.12912334451982768
1784 -0.10004766099176503 -0.05276776251976506 -0.08538178503335257
48 0.23147339290891278 -0.13627754493395666 -0.04081472539135647
18 -0.19252848454599922 -0.07089770444342804 0.1342267996162448
17 -0.11126653863246626 0.10341765926368243 -0.11129366969857053
58 0.04676425500281291 0.12217110793395253 -0.02135937798105216
46 0.08194006007410659 0.1429703621642149 -0.09022588168540514
29 -0.03584288246386853 -0.012978265702274335 -0.002999174023374903
16 -0.004377960626482911 0.08872341592216752 -0.05158397724218714
15 0.2558880449275993 -0.003414158997888911 -0.035463461014163325
13 0.005444150406176477 -0.05379256373070439 0.2305780600785599
3215 0.2154694539460273 -0.10612267635588535 -0.01422683128782349
107 -0.19819890780321084 -0.21498841511072697 -0.09931216080877683
12 -0.08886081236425918 -0.07689277306832892 -0.11335963496705406
220 0.19786037737552123 0.07535493938703428 0.027839513389755106
213 -0.05178951680163061 -0.02080837587087406 -0.04244373652800382
2031 -0.05051250497806984 0.16621590865890043 0.1433355714294008
214 -0.05443413069530352 0.000811210985394618 -0.11436839231528262
98 -0.12397664558685038 -0.041538227235294475 0.17795356516835203
2788 0.042403310207540026 0.14369762313743437 -0.07615404357922163
143 0.19277781738300104 -0.024110001595089622 -0.06838584522507263
2622 0.04607831622953988 -0.026777229100974107 -0.17408622364761359
150 -0.02567364320233765 -0.039332393679819264 -0.09684887223061593
176 -0.035147460528422866 0.012062935196053004 -0.03975493261010245
145 0.05155762201280571 -0.08721906346905722 -0.01831290250368971
148 -0.13618482679159907 -0.04471492244934036 -0.08187801179414544
146 0.13502285941004288 -0.1968962654711843 -0.10192487132946018
185 -0.1741511081021009 0.08408130966751655 0.022063684156844048
175 0.004938931946275901 0.1141144889272521 -0.13025576296676483
152 -0.060994198449508805 0.013415890903252854 0.036858113713223443
151 0.046602139155099455 0.13769372532016882 -0.07643920305402915
2877 -0.06113102564278517 -0.030085669528489494 0.059407897815852935
147 0.17735543357248407 0.0575624758409687 0.0502069086489525
149 -0.09726520264633096 -0.03574697423503832 -0.034242750949117155
1956 0.1343886536674293 -0.16648008492670358 0.013899405156233332
2629 -0.11603359947621399 -0.11407099592240219 0.1551966125914301
1969 -0.05009997701597548 0.08440978912001595 -0.05282123966177478
2801 -0.13128289305884477 0.04645637387970537 0.03696611606205619
2421 0.007615882691791351 -0.0003514440094835999 0.00837389399969113
2790 -0.0737707994928826 -0.0013852881379441961 -0.04008718206020971
3143 0.13110229608534124 -0.13867386089028252 0.18970059244197024
1944 -0.03156530481170825 0.009549298875366607 -0.13367606070333565
3244 -0.05293996301069412 -0.018277255400090127 -0.06960342558658202
2787 0.1062457385820971 0.0940963637687945 -0.041236752864508286
3182 -0.06506430498051746 -0.09351157600744117 0.03871078632852825
2521 0.07134675491822241 0.13741678383222888 0.0320511249391895
3220 -0.012012054828688695 0.07393908341733185 0.08071372200115041
3205 0.04859169716622593 -0.0275690808693987 0.042482845594875425
3195 0.006880039534741417 0.07613447449620936 0.05858325008188261
3101 -0.05031120292859021 -0.03491636575672215 0.1001566784981977
1871 0.06419708976958745 0.025006875253954196 0.017352470735386767
2110 -0.08335944862758701 0.045391524643668156 -0.07633860547108932
2035 -0.09434023383391182 0.05721537372198856 -0.09193834618140759
2108 -0.1376862509299415 -0.04924614337249576 -0.053510087808700736
1962 -0.05075904180958162 0.10282948845742176 0.004439087690535623
2373 0.05000181303378261 0.06255567632795096 0.08802011944416616
2672 -0.07820638788607409 -0.09426421764044332 -0.00044126559750514924
2633 -0.0369935355562968 -0.08172379155956437 0.02361239910811197
2277 -0.010318064931627617 0.014487710888034647 0.04474652415804545
2592 0.04603095113431008 -0.06196275678066833 0.003010369815715971
3174 -0.020534378971594207 0.026736619685425372 -0.05998898155224812
2939 0.1184807996401593 0.07151893222953688 -0.03983608060186372
3115 0.02151564117175308 0.07837512699716898 0.00464258607146124
3034 -0.2014039783351416 -0.14297244521576807 0.08375984655025333
2204 0.08038080270496045 -0.05943182766109615 -0.043028301516514426
2550 0.0047194299414495995 -0.012566818697294781 0.07015171309547298
2088 -0.10217395594543979 -0.03752655725316511 -0.08587553329836456
2135 0.01563874082227717 -0.030001988851119175 0.08401026015528436
1978 -0.008427090944690945 0.20105727703898577 -0.08327278714555832
2123 -0.07135156570430554 0.11374669954415073 0.09520176634090743
2710 -0.07437764141561978 -0.1042374134366783 -0.015838548029050093
2951 -0.06397880639745068 -0.003883406068919081 -0.09471697000481717
1848 -0.08178837494329612 0.04393736525536447 -0.005532398522793178
2968 -0.13081209444626285 0.08367092785018639 -0.10144384139716091
3078 0.01909915892244146 -0.09781179666160911 0.01317040654380884
2963 0.08891218302880537 0.19908510321745376 -0.02644731715515036
2828 0.08526091150606582 0.09421967173335029 0.010245720133465606
3169 0.03705017073357969 0.0738938161151145 0.10660287134446705
2821 -0.07537709417319732 0.09495772617742067 -0.010196347698283665
2679 -0.10154815074392799 0.03318663957476865 0.0828683317659417
2609 0.21189819728521847 -0.07311650882175189 0.18718541381698134
2557 -0.0203149843161233 0.05695839452577558 -0.009273223030475461
3207 0.028359047316533825 0.0843344840564932 0.04366057955335973
2501 -0.11936786582468409 0.1603331274595815 0.09457042665445331
1560 -0.07422636461412874 0.1008752279953787 0.002191197000557532
2729 0.10750900079007211 -0.0005463262230812754 0.067555226387704
2506 -0.21263490013121492 -0.10840433456615867 0.10258977821179316
1950 -0.013543086854924603 0.021975628089715434 0.018829928156791603
2686 -0.042766181662937885 -0.1240277881369437 0.036659056871393154
32 -0.021829384912214696 0.0258798398716188 -0.09364756996998955
3225 0.07512322212452148 0.03572741009740138 0.0511860236735557
3158 0.023792486481346607 -0.08494366012893671 -0.06201802375808745
40 0.09762557676936617 -0.039367650381867576 0.04816384779644167
35 0.14200693328542244 0.044685518686779495 0.0009115709814740657
38 0.01899512545831466 0.00501031244422554 -0.2279975610882571
33 0.11296468614955643 -0.0863396702579964 0.03100582145444207
2676 0.007561994753777956 -0.06823382164355159 0.0568156754481005
3084 -0.08162982956543469 -0.029104899110268815 -0.00783649940306462
31 0.030773146089064764 -0.14064988697877367 -0.07333458985188689
2689 -0.11092114496391832 0.021711873866859573 0.1279765028644647
101 -0.2493975421065113 0.025051579859980685 0.05114180507969297
105 0.13657802893644544 -0.021239861616013947 -0.02042821819657501
104 0.1793000182963587 0.15858098644539406 0.18912566918145804
2566 0.058920628002777684 0.07535492900051383 0.05087620006117586
2737 -0.0022720966639535687 -0.033747690467069116 -0.03689169630305324
3068 -0.07985090257234641 0.02935548679175392 0.06467307054550668
2370 -0.005017849513961389 0.061262323925507275 -0.06418563326813764
2668 0.06884867123714863 0.006006770683273901 -0.08057336517837835
2450 -0.04365144177720112 0.05691662927385483 0.07305044751633016
3209 -0.029156889410734313 -0.06708727710528936 -0.024141181390663045
2741 -0.005842435290416739 0.018889226420358514 0.16038479179289503
263 -0.1591048277470724 0.16534073926473258 0.013804284187432705
20 0.07413299819514182 0.04022423598061653 0.08508636499928898
265 -0.012778051772671387 0.0457534263835412 -0.13412809706915876
268 0.03756284857454564 0.06635505298982525 -0.03323539433178405
270 -0.033200886583796954 -0.16645278815134626 0.15516043862183865
267 0.05887824778054979 0.2543298852142445 0.04381166558071027
266 0.1851245518911331 0.06446192000204966 0.0315020338850112
47 -0.00750662393907419 0.062010181324194044 -0.1694473650832254
3086 0.019327430100336794 0.01063974517489533 -0.08072582664731844
2864 -0.05371943958659487 0.05580937307826866 0.0637822611605239
19 0.01950209110819002 -0.009937760471298449 -0.12080810906537455
2644 0.12089473238734869 0.16806400719860448 -0.01786862709416008
30 -0.22571467237560505 0.0692585681275541 -0.0019158060130140542
28 -0.04405012856368092 -0.019534806460913247 0.12228616302168771
274 -0.18986983271792818 -0.15609102838949923 -0.01739625266505943
2882 0.00809378154848844 -0.07667014955529074 0.0540495851726385
273 -0.0453705053148445 -0.08565492215128523 -0.16836859595122933
275 -0.11048601568931538 -0.1734221084585272 -0.11730656271552779
272 0.029522652679876256 -0.02477378898276547 -0.016333357995210768
277 -0.10105208052096228 -0.10243169331873604 -0.04580508529006498
2162 -0.021420005997310775 -0.14762773913048663 -0.020004693907149103
2726 0.011919942108848192 0.11217979806316478 0.0018999884419628604
2697 -0.14655618599873318 -0.07569086626874354 0.04407014672304424
1958 -0.1590106935507812 0.06637174103981608 0.04505913893595484
2487 -0.14992701363799832 -0.20131779221565366 -0.004657414646890149
177 -0.11709924481848402 0.05856658266563644 -0.13570817463790008
2200 0.07709094068282411 0.05931441752451864 0.06524056101815776
2714 0.0005122930674335349 0.09498633606999843 0.15929296835670836
2809 -0.09378861693419478 0.047163644806879304 -0.05273784703828182
2127 -0.10594804942137927 -0.06064389557595104 -0.19557487570653032
2839 0.12351870017466354 -0.12579650461163713 0.0673814926022689
2080 -0.07675905793569243 0.08032614292193094 0.08523997560335463
2772 -0.053220866539538544 -0.07685994956769061 0.045523727654896304
2483 -0.03181777028745969 0.08997521655021191 0.08175235130806009
1945 -0.04962718310342316 0.01371734847124778 0.07186350552013632
2476 -0.09281159857392125 0.1205222988850944 0.17842100924144666
2378 -0.06253080067081286 0.11288434879191798 0.14013703640167674
2365 0.06136686872983964 0.0337046689261271 0.022803355669619697
2445 0.1616828190262494 0.05041071159865979 0.08738150744139044
2519 -0.012367925131011252 0.020544077891299223 0.046790931365325736
3062 -0.18971773791566 -0.07536351601250409 0.08852065895556534
2936 0.029574238607634383 -0.09563857233349786 0.006393581202130339
2345 0.0697052840605345 -0.06722629740884103 0.03770251221077863
2300 -0.13067227560623623 0.08571339807377913 0.016015817960729463
3014 0.06192568120154756 0.2103038240049933 -0.13713967550247433
2158 0.08473936855433417 -0.1326177418871649 -0.05630525793386874
1894 0.1474082381411277 -0.08904907106104328 0.034769357601195885
1935 -0.026886199062460526 0.05293723192326994 0.03366890632452081
1952 0.07817435238513998 0.05041983140261129 0.014501767382114948
2814 -0.09277903637890005 -0.02008653268405922 -0.001245966213368593
2856 0.03309451418042125 -0.07705414492911049 -0.1151483562081161
1924 0.08820014170125028 0.0013030566851821891 -0.11742802517002195
1830 0.08036910720050205 0.10627981647117332 -0.09019576709610194
3059 0.09339462307316419 0.08343319870861829 0.06613502811815261
2332 -0.19797682856700446 -0.08036249637539643 -0.02533500419545505
2751 -0.04469221747749304 0.14160816328564474 -0.05347642004193611
3000 -0.07488822490157242 0.10201944631364158 0.04198078513037059
3008 -0.0595476752201588 0.10125758349237317 -0.22729916693805993
3152 -0.053925262911651256 0.10502279553215885 -0.09545772059105134
2293 0.09844438534304042 0.04310741303861694 0.08213875049449831
3261 0.22212734627640537 -0.060060303666057226 0.0015417688183879605
2434 -0.001625029669576122 0.09109972129896035 -0.10112856040814612
2302 -0.009658375329073356 0.023390072037938008 -0.07379209144647128
2876 -0.03333688690641653 0.025079648002631863 0.05419680635432011
2579 0.08298771245750516 -0.012149040470337533 0.0164257795469201
1843 -0.004922200056013432 0.17081647725274587 -0.012014865867402538
2134 -0.08482487763944536 0.000674178614247338 -0.049121138827585856
2916 -0.07918547230951749 -0.11988128204642517 0.043611472883193426
3155 0.19023229924379254 -0.24743568935485072 0.006717639474131634
2780 -0.07866000321286369 -0.016693270918010233 0.040656290702128964
3024 -0.2071138695488219 0.007144522710062469 0.1104889190538748
2933 -0.06563950847096817 0.0072418175462030995 -0.02999707986890192
2199 -0.1438136937378264 -0.08401419664485699 -0.05963306395555581
3076 -0.04213530096157927 0.05284535064311546 -0.11958952851320227
2867 -0.04106399864050779 0.007298532926366763 0.10238753348132133
2938 -0.041890002000844494 -0.11109136243111957 -0.23916911110649577
3064 0.10075715516492371 -0.02683632817269268 0.1201144569470496
2488 -0.12271502151033267 0.06830492261138926 -0.06199546911846834
3197 -0.06753333507763162 0.0608369731680552 0.04900848947857228
2620 -0.06189098430945598 -0.0430256645960667 0.1317592447748816
2096 -0.07977041264104305 -0.05565900226107246 0.06844412126365093
2163 -0.0030341254295579555 -0.04401397807269722 -0.007753246465295774
2711 -0.01936047924635747 0.0385200921889663 -0.030130599969442798
3157 -0.11981809873294252 0.030892898755762264 -0.08545669518971001
2545 0.050320627871720036 0.14089457902039096 0.04576220169316704
2824 0.032231786512844085 -0.025746659513866798 0.10209771281869714
2451 0.13716444468703745 -0.11519305549657108 -0.14540710230235515
2594 0.029440220594643546 0.02224630380168495 0.04490164844214253
3222 -0.06255376870102901 -0.022704094818900237 0.0007347761778506469
2616 -0.01719923162962942 0.05154453214269777 0.004196839219763036
2573 0.11464558197524446 0.0687843332832647 0.13899920343899957
2647 0.016602386265680082 -0.16704598663170814 -0.012889220749512417
2593 -0.06462680511963549 -0.041293019500214315 -0.15345131142612117
3050 0.1365616830766474 0.095952151429977 0.027050201065728932
3227 0.048644314835851646 -0.014337282631468213 -0.10070884250868814
3239 -0.0747285373020391 -0.008071800642662998 -0.1085506418024271
3208 0.10951517032708293 -0.043216699089332324 0.0073377404584425475
2591 0.06955991088441735 -0.06548194564854025 -0.1490073289629418
2184 0.1296377275674718 -0.01811799376687698 0.009628512237811152
2804 0.0054793192105069 0.010100194637259705 -0.07419882975921832
2623 -0.12873410900239632 -0.019551950303941218 0.06467452640611465
269 -0.020729778609353402 0.03458601928564664 0.08898193935039536
3190 0.017865705875797732 0.13754453986487752 0.012409876429335387
2648 0.058695181481130794 -0.2699925344244584 0.02700960175122613
2496 -0.016220511204593818 -0.03557940349235575 -0.05704734888397363
271 -0.09252763566592165 -0.15145489987413552 0.052560656830670044
3083 0.057546583696212794 -0.15619852538750428 -0.0943881601070139
1890 -0.04762260718901839 -0.12176307217832949 0.0066141434037571695
2920 -0.08137373324019775 0.002912005393525717 -0.0008616089527674013
2235 -0.03777952992217527 0.04304414415085876 0.16331623443822474
2625 -0.1175949215213906 -0.04133697469711419 0.16860688859818637
3030 -0.05010134823748298 0.009352428696007057 0.017686570113067616
2462 0.28456049892288543 -0.016209276562376498 -0.013143239742771831
2130 -0.07182235429340246 -0.037394727271301935 -0.08050427950646116
2850 0.10922929528362692 -0.10232418637277342 0.0660252833762833
2657 0.02776741754899484 -0.17924692501911424 -0.09091915195983714
2015 -0.10678072926357383 0.1506496257697096 0.059197567034867546
2725 0.0699345621833881 -0.042699409729647725 -0.0826456612682309
2690 0.07941946791333815 -0.012775784522368529 0.03897391128744286
2146 0.08871014162103023 -0.025701957834506704 0.0515741188286602
1965 0.02537897537311145 0.08453025523670504 0.09361263781826853
2823 -0.02923762664230187 -0.014023688162203207 -0.03283535945913724
3066 -0.0585746431981864 -0.13920217614005137 -0.04725430189857256
2097 0.038884429876561294 0.061678283568454104 -0.024159055181844004
3095 -0.17731158737864583 -0.016718251405065533 -0.24802099186245735
3097 0.05432184095244025 -0.08500561696997272 -0.0178208932759294
3048 0.017246105534871603 -0.02192934264369712 -0.15959646074861286
3047 -0.012779950545031997 -0.04180494175080477 -0.0741359155469528
2532 -0.030675469621841672 0.13092871399957304 0.03755365883917307
2945 0.09209773818426517 -0.17813987144291582 -0.03787471833187306
2403 -0.035029815404561876 -0.052493449621481454 0.14890245970253527
3113 -0.09119248763928102 0.1616828482044599 -0.027835381220297262
2595 0.07689413496348835 0.016889894241629247 0.16694762162060536
2691 -0.027538956214622764 -0.06479039289858203 0.04281727658267895
1357 0.011305719151934731 -0.1133824172836573 0.170807702027171
2773 -0.045870091209404745 -0.011852910653691763 -0.08219527673553899
2186 0.08342993804906143 0.043600127505600404 0.07787071303213662
1957 0.08045367918639092 -0.025280383260381595 0.075378049172691
2025 -0.03162050830464856 -0.14786224205978596 -0.09113715093993412
2168 0.06472102470404349 -0.02700174927380824 -0.028972587042244022
3139 -0.18048606948241716 -0.06901061294270729 0.15093235340903213
2354 -0.0651553153988603 -0.06742855223258312 -0.011792044977943165
2533 0.09657331120473048 -0.11979039812416341 0.057750218315121435
3196 -0.04504785867307373 -0.03622809905439282 -0.0836002839558817
2930 -0.11176476799131704 0.11974242920222296 -0.04516018177400546
2262 -0.00557617735968421 0.07556627318336835 -0.069460993694014
2268 0.06124668169964861 -0.03939060330166427 -0.01202941137512788
2980 0.020985123502902808 -0.15444031102214129 0.09885687595074727
3015 0.034167174030468914 -0.026079145397020678 0.026363983251465727
1929 0.11265597346612742 0.0940344550880716 -0.06876809281451907
2868 -0.05080924753334387 0.04679652468905324 -0.1313295123390663
2712 -0.11321901850793965 -0.04517424871064647 -0.05241405627491244
1979 -0.10562967878249258 0.17179923233387742 6.378879167111967e-05
2673 -0.024238834277034358 0.05866734859789635 0.12085704973229115
2574 0.028346715949515475 -0.09678244589010805 -0.012232024281333392
2818 0.1280658519152055 0.03225154593822715 0.1207093922185288
3193 0.014417562021473597 0.060792198914520715 -0.0004381814858156613
2539 0.05164211719447017 -0.04892768804628287 0.019636836989470826
2813 0.1386411616982149 -0.03359039527800166 0.14798847416949443
2203 0.013687956526220962 0.21284199528001457 0.288061539679582
2967 0.07057892924132911 0.09085594180026829 0.027491767704500944
2309 -0.0544557086941681 0.17423110441405976 -0.05042550180206873
3142 0.03703432147657512 0.08126737845440332 0.12184345824795391
2214 -0.060094489119494124 -0.04019693108250995 -0.0014381573174869593
2500 -0.18051376393189428 0.0470023206634171 -0.07051835266553638
3125 -0.1065085364802646 0.00704918468195766 -0.01603331195450886
3061 0.030446276461874422 0.01892195963096332 0.027235003662833164
1974 -0.04503187673775208 -0.07942451415566551 -0.1742004359051586
1847 -0.007481710379443613 -0.0469463104630685 -0.05175467865235333
1905 0.058078595501919975 0.11599912405436046 -0.03130744325908315
2878 0.021091506608434354 0.12945578262179652 0.05734942849147507
2215 -0.11536528951703937 -0.050779347964584665 -0.06332193921808792
1980 -0.10431450831511024 0.08130768851486254 0.024521179691568255
2794 -0.16786685356914066 0.024088191042871847 -0.03875821958244108
2762 -0.09558598721739793 -0.007830682565335128 -0.03305049764535291
1869 0.04497408015712742 -0.20852000301012508 -0.025749010234905223
2444 -0.06786595803327582 0.07969957685145351 0.02754803323546086
2888 -0.07000860057971511 -0.03608313642658764 -0.006296670783241913
3045 -0.018326379410609425 0.04846943135500452 0.0465065905225765
1939 -0.06295070760511196 0.10323149545414814 0.029058778271488023
2402 0.130767223676003 0.0921798990691663 0.10555920629659489
3120 -0.06558002984512351 -0.02734776539302408 0.010344073718214532
3007 -0.033755519815129156 0.004867318919944005 0.11807942343037331
2201 0.032828375584299636 0.14827265907830628 -0.002749134680473612
2415 0.022125642603015583 -0.008687290968438423 0.009130446056644863
5123 0.0471323661327716 0.0661311027214675 -0.02819824314563253
2760 -0.08968462879328284 -0.1523075712518059 -0.06642592055324745
2696 0.13829780181022477 0.018652622543429708 0.0024319028258709043
1966 -0.07151616057476703 0.07159237077545794 0.08209874358622903
2835 -0.06653431935412468 -0.04802283082935557 -0.1231225779001913
2599 0.035301527959236384 -0.10127519433909793 0.06507029040202035
2249 -0.05008873130131967 -0.052304640745500806 -0.05232233079028344
3089 -0.11251594759692589 0.18611482415997624 0.0018988190677838301
2952 0.0010884168803675827 0.025528935947448168 -0.07451938881895105
3242 -0.09275095117510608 -0.10053130411996536 0.1373533006476415
2207 0.10876346965531097 0.02084389294420182 -0.0654234975185578
2422 0.015290745401996457 0.009214994186047043 0.05836045880472856
3067 0.09939617381858523 -0.13632811510515527 -0.08569399219505021
2966 -0.07794535792417276 0.0949032715619976 0.004364972691709818
2217 -0.012212969548184788 0.0018615464088926658 0.09017412186559587
2362 -0.008458227668505236 -0.08859065346390903 -0.14872613904447907
2991 -0.12965352383277318 -0.08914278056625091 0.10437320931915511
2040 0.062906476473917 0.1580086659406767 0.20294667305759245
1971 0.017250713860800612 0.14503972114395047 -0.08003105608476759
1114 0.026019253991465638 0.07455317205174758 0.023839266918592616
2177 -0.01655682362454731 0.016147556495605026 -0.009692491280067356
2183 -0.09621540977694958 -0.1425293721994566 -0.09221578013256787
2188 0.06672989142946086 0.005806861080458074 -0.010030577211492024
1926 0.028165384719838437 -0.016222378826241765 -0.09951700861949223
1379 -0.033712894185589676 0.12220039049381722 -0.1391950667110783
2687 0.07765705465461413 -0.1523160366961926 0.14362182212323935
2318 0.0006210001382788866 -0.04326174696350613 -0.005167866663827196
2030 -0.10040163446413529 -0.04632711818186904 0.11699504576120014
2911 -0.1065517833086566 0.03471529424917516 -0.031009305901384624
2250 -0.14873586402058164 0.07839162050691445 -0.03354964082819734
2406 -0.04959642968178927 -0.046644110188624674 -0.08187761051008541
3258 0.020159351048692483 0.14211846791594643 0.13996654726779215
914 0.07705569284051474 -0.10844969280146466 -0.12100154944694759
1549 0.10697096944697851 0.08351250215454026 -0.019196019769366503
2026 -0.031107316371982746 0.08125190766089652 0.002120953796650015
1908 0.010276728373589228 0.07705243334225025 -0.14257820305025415
2180 -0.07764848006407733 -0.11808358576217519 -0.15229694993101314
715 0.18226503919047105 -0.019014448587356427 -0.2118541147126706
1857 0.05447021467834392 0.1182146539327076 -0.14035178379335092
2900 0.014358555179844065 0.054518712546783615 -0.022639134594396374
2677 0.09270635024062765 -0.011666572254087043 -0.04388728161918184
2385 0.06875724914823807 0.058333347281127275 -0.05710118166475224
2085 -0.03626217485100172 -0.0089317002998417 0.08124389605013935
3186 0.05403673474627483 -0.08513216957203185 0.07931716539274766
3124 0.0062253734676088685 -0.008671804965634872 -0.02783588824966314
3159 0.05413680347491227 -0.017555726237421236 -0.11214527082720623
1948 -0.09353139134495608 -0.03214739320732251 0.02840682422561633
2269 0.08674463221120966 0.1341222276419321 0.028746582211634498
2475 0.10706104206320796 -0.055980384805354215 -0.14786059640283275
3053 -0.004484978309934988 -0.07399884470014567 -0.038673514956478416
1667 0.05075698068037482 0.1210668184246952 0.0001104371008310602
1679 -0.0071548663727044 -0.016663569481989264 0.08401796523798191
992 -0.14091288180155223 0.11343652381520448 -0.08447388796749061
2983 -0.00662993614429541 0.06999154684917001 -0.0470426207712727
2386 -0.17782529648099563 0.04561445736424668 0.08475018377119739
3004 0.0412879257147495 -0.25251415978348085 -0.010525415588105113
957 -0.040715724938339345 0.013296036521494595 -0.030432114102343567
2587 0.05932438972272871 0.0021731925204665856 -0.0008843454533159212
2898 -0.04509595603045128 0.07502729078919916 0.01671514894854284
2857 0.06598843178519227 -0.050036938560252486 -0.016863433270299988
2582 0.10124110467093378 -0.07930739115647976 -0.08538569722993082
2793 -0.012282304854568065 0.04655639638055646 0.015446721018121595
1918 -0.09855427791359782 -0.18705809905013393 0.04937767292346379
2589 0.1346082552024322 -0.05644078494923449 0.04514103924064915
408 0.021818055155425176 -0.06597801997684419 0.0041568932746329675
1355 0.11308631103071888 0.042813325879006166 -0.013236076409547135
2265 -0.07308534305279044 0.022666741908497608 -0.10171317516927637
3136 0.09818027504697606 -0.11898200045359195 -0.01403776436116278
3253 -0.07016203730925824 -0.012010002667822078 0.02132638325317446
5046 -0.2577944954329813 -0.005626092667700973 0.0153355859706053
3131 0.16022822422391161 -0.009120896042618051 -0.03968687517047781
2343 0.06970936135858231 0.1879036640485301 0.003912314781884061
2061 0.1164812164977735 -0.10404397548949536 -0.04342549046061801
450 0.12104367259128135 -0.021358137644291945 0.0030820846180093335
2675 0.02775497632138323 0.12778166523546394 -0.0916085918515622
2122 -0.060421957250494554 -0.19978364066337206 0.08781025842994603
2719 -0.13220736862549 -0.011806388095951276 -0.0137209042529133
1827 -0.2093459192060813 0.02825339451263329 -0.05186603732809279
1889 0.014473869048577738 0.05774059637225532 -0.07864543710110501
2615 -0.036027316659281085 -0.13776461574548776 -0.12425182458382542
2536 0.08492116096701177 0.026384317694363356 -0.03165912259805364
2441 -0.08792064509383764 -0.12416443174740519 -0.15275009930474032
2943 0.03686637297357248 -0.1631123476617546 0.0062394376526014594
1150 0.0530095452225415 0.07272751813641663 0.12940020683504652
3187 -0.015341685644243513 -0.13099372674529142 -0.09795753091198885
3123 -0.12655674041451342 -0.04855419910760969 -0.02499465183775434
2372 0.05805807361371972 -0.005148583662891509 0.014554623069564142
2994 -0.1964257736859386 0.06626149947445609 0.027172197360654633
906 -0.02543336388870147 -0.037844767905788154 0.021661318323347147
2325 0.002433964141285567 0.005883106449378825 0.14202647670090712
4965 -0.07429487144805064 0.01833471339382365 -0.020738057830840338
2997 0.08261439352981739 -0.14161881000176568 -0.020936138819163477
386 0.0761935136533836 -0.01806506412205593 0.010794151380836841
1860 -0.12014437795883497 -0.08960836268461529 0.11506879767587183
2771 -0.02594413709714074 -0.15448820571408825 -0.05505322432230489
2029 0.004750337787600856 0.016154709983682704 -0.1714196730854505
2583 0.0413267772383178 0.03715569540913582 -0.07695952819927478
2001 0.011566964708840461 0.07973148024898043 -0.11986741307812236
1864 0.009135277050479274 -0.040320908761755245 0.029526604402962484
2638 0.014474384113671284 -0.019219195935863062 -0.019166126929920438
2884 0.09597351983640101 -0.07982816545373489 0.27730703561784353
1853 -0.11763641285897442 0.1358285703854723 0.1125195029760007
2926 -0.15821727170987365 0.1392057049476199 0.05463109438223679
3009 -0.041252991087707844 0.003757578958580904 0.03154484138956885
1603 0.047597756922180524 0.006959892131484076 0.07036083863275694
1819 -0.0715461000090618 -0.010164352911432029 -0.11452881676341686
3156 0.10053504846633476 -0.08434034057401153 -0.13102795915055881
3117 0.10365291852357443 0.13035363661193308 -0.11567368781885748
980 0.021862757968554625 0.00983052075672964 0.00026121606055196306
2395 0.06928593279941307 0.09118979761932791 0.1808878543215724
2482 0.1197575774929331 -0.025268233158046403 0.2656459253619859
879 -0.026158321663997793 0.011222702595302645 0.06731477854682043
961 -0.13500145589608464 0.04865553169488302 0.03013498026021082
1365 0.10410957002481716 -0.03141280628313598 0.19686075321869168
2766 0.10401474135857451 -0.08036362837047482 0.03327395720573288
2190 -0.1586336818340983 -0.06237854521084581 0.1453326870138372
2172 0.13901770104888284 -0.02640088905136679 -0.026277064085179706
1259 -0.00199793932733657 0.09612745121023734 -0.11814647255348736
2226 -0.08400623313416813 0.0230482917723746 0.002394033571107408
1011 0.12797665842627362 -0.017322934167964266 0.04123628071253788
1651 -0.1734085958238149 -0.07103048507468093 -0.1437605407363789
1211 0.022954061837295817 -0.1718926972150962 0.1566388583003685
915 0.07851861799305049 -0.03260413163640335 -0.07304914218961642
1224 -0.13367929309907262 0.0618291989131026 0.03184833715355781
893 0.07219879071239516 -0.07955253071702392 0.10224106611086849
776 -0.05702472931204196 -0.05602128856943857 -0.06500278301773782
1395 0.08298099447737538 0.0017473034925252848 0.07680789697348428
877 0.03667549260902919 -0.019494797089571164 0.009116196021118926
564 0.04569696533372777 -0.09592614324092479 -0.13050032063680764
697 0.008092915647715724 0.1611371691946786 0.0013684573814883427
2568 -0.10157039767629233 -0.0545159099773255 0.01039397689575709
1177 -0.015961345797798225 0.0817592792353961 0.0428876366213104
806 -0.1488806120127932 -0.02411829925811732 0.047350497824184726
2153 -0.007914528501679001 0.05000783561038691 0.06251458152248654
2756 0.02631273069276456 -0.09783165100832433 -0.0897868516124043
1035 0.0406542698700263 -0.0999924349331239 -0.05414017609473052
588 -0.007029874307769428 -0.1889535862276658 0.016616696161021845
2418 0.12232402996613824 0.12231363247500916 0.0009062840564173624
1515 0.0316583179330127 0.09503359047158647 0.14893406819547103
1012 0.05423840440444516 0.004906565024836419 0.07118055234842516
1609 0.0018144130227932594 -0.05211526063314195 0.13295358922456837
1797 -0.17454777888207593 0.09492174992876377 -0.0014875564850731354
891 -0.025536621648843766 -0.009734619417705054 0.002990936915746003
646 0.027730737834107795 0.17946876793779376 0.006936215233732813
502 -0.07321196581498803 0.03836246863268726 -0.02386993958851457
424 -0.004895819202583744 0.060469039231488136 0.0538756060106385
698 0.08043491774399228 0.02447522639535501 0.042679352162716615
1178 -0.12565326756584422 -0.031101331711983225 -0.03961172563615607
1160 0.08393879356366755 0.10838273956472849 -0.013932453910536935
1849 -0.08962152176056296 0.0012833175270881873 0.05901603836872716
1155 -0.188580826776317 -0.1006817372591078 0.04183778535566784
1362 0.08206427030424789 -0.06861027619423173 -0.04735467793513603
640 0.22953529756956165 0.01845008110202255 0.021836235795004457
609 0.04444797393946253 0.10068455480719604 -0.021809792627785783
2680 -0.06287282017791194 0.039215454687312704 0.010430861416327167
1282 0.04138742787873415 0.11349834293763805 -0.0793919878779091
950 0.11848146901546708 -0.06176518208936046 0.10358799658979172
2580 -0.10778499521888761 0.0713233232529038 0.04405917264747238
2495 -0.05844767515706403 -0.23292390087428927 -0.1464462240240565
1499 -0.029932940797295467 0.00938747514467092 -0.01740213613793546
3106 -0.02582906203968462 0.20727552355484502 -0.11716803433834064
543 0.02221490437258119 -0.01840872637336167 0.14688519927348875
682 -0.04556498027277278 -0.11802058477499446 -0.12837048784161395
1204 0.11516975293779791 0.13531100407928007 0.05851626756887245
443 0.03721912349034517 0.010895563559282553 -0.06105864830760177
538 -0.06841058981945977 -0.013661955925531523 -0.02262295955410057
579 -0.008982077615186905 -0.009816063748120715 0.06238857379719459
654 -0.047442126458281095 -0.07315105961079382 0.045450891889692535
1526 0.09966339498458095 0.14613784280258163 -0.16181178337264357
1287 0.019379737618458764 -0.07468604733790592 0.01637106999411267
1053 -0.011210789368897862 0.14238251354305248 0.0380178642685726
3183 -0.1426837371613787 -0.016777131085452646 -0.056150732009217
787 0.031525673955670186 -0.10451270447823346 0.05908116688077554
2347 -0.025009842460844207 -0.05574074218234344 0.10397575840397709
3109 -0.0560573547261305 -0.07927129663793094 0.07703356636032117
1780 0.0771280092920343 0.06394667418715769 0.11360078216130001
1298 0.09839843996025963 0.015802883669624387 -0.04478991711868001
1349 0.08241521737828543 0.008551038650090595 -0.11194205218529146
1428 -0.00887921397466042 -0.12205406073572243 -0.033087301270553045
1220 -0.0937139829489089 0.07025672160546248 0.04446493362741821
1171 -0.05184661841509451 -0.02381488843153101 -0.14061045723804688
736 0.11609141212237362 -0.05198031798918832 0.053895423257599905
514 -0.0025084411636732175 -0.17062825722504288 -0.08035099777359
430 0.09364959043799229 0.11993648295929558 0.13414461077813347
475 -0.16975038089892208 0.12716202384850067 -0.018424323945743743
1903 -0.09348473528555784 -0.07231731012943292 0.07293285565270649
1109 -0.22115310597047647 0.016083643990806102 0.11957911204361002
2412 0.0019168316651889637 0.001534702158748161 0.1060765477295366
902 -0.08030234596490445 -0.17696164764248257 -0.07819969898645449
2466 0.03726072810075753 0.06137223045254356 -0.1696269815107024
668 0.001299728694569905 0.1180465228800352 -0.08063145649159158
1506 0.034428382610786956 -0.023571405554009894 -0.10972315882578941
3080 0.045618142306640394 -0.011695520185170064 -0.08908444676703053
867 -0.021127965243878288 0.014672984457220881 0.0327178449133614
808 0.11644265642461114 0.07924433958823877 0.0971058336208684
1382 0.02703190388678595 0.13093183481724904 -0.036486246820251256
540 -0.21991321750413886 0.04658006999819492 0.17416182662986351
1445 0.1561562430967714 0.03947599653309606 -0.12959599163033414
1315 0.054284102054810046 -0.049584122835556854 0.14641671787995686
1367 -0.030497192545937753 0.0529003129142287 0.08848761889602536
790 0.06750340910030901 -0.10923500247457929 -0.08108646872377762
714 0.1056539002308346 0.050867921486764014 -0.04161058462758474
1440 -0.1337363985583766 -0.08278078561075161 0.036775935663384995
710 0.012726543557182397 0.07209108215619245 0.00869639872498856
603 -0.02896991210183629 -0.15073314638374402 -0.10970103867423119
1227 0.07998827928772423 0.04277854260429317 -0.05332645371944397
1272 0.004513278570860396 -0.05888611319490681 0.11624699851926272
1236 -0.04521274574243005 0.027485126120525154 0.09873998829374597
1745 0.07852803542520408 -0.1554344951183832 0.00527730203517803
716 0.05452391683974317 -0.003893473508947483 0.20346822729253003
919 -0.15912749488201972 0.05462400606540972 0.014414324431895678
1490 -0.1354383946437367 -0.04679038074839916 0.04150866956826477
1028 0.11810076341823939 -0.12197802906357798 -0.07497119878794939
741 -0.05203972880600837 0.09256896959396098 0.03182844630139685
964 0.01636628775021667 0.027823919982044205 -0.10488982419226499
1493 0.08982464839466614 0.005670958228114876 0.06934647351435722
706 0.15571020390467535 -0.16783510275399516 0.020401670363695782
468 0.1108074195505443 -0.08540871183000584 0.12153727056328917
661 -0.03668064413149664 0.04142139985428204 -0.007404786011682237
1285 0.13160859849221046 0.058738048295858485 0.10028345644365637
481 -0.0465763047410328 -0.029129315989260975 0.16807278659448094
453 -0.10266268844303944 -0.11584588449614944 0.01678052015024193
444 0.22158474732514077 -0.010518913194802025 -0.06667222431131359
680 -0.016087524273304163 -0.0687039396048362 0.1149041866064092
1364 0.1235418042631517 -0.1001581130482027 0.0482119861099515
406 -0.02129725004701059 0.10803549462309649 0.03592092574507135
440 -0.12641221056745153 0.12259275162308614 -0.20126433015517137
612 -0.04029408235436084 -0.0818939602365822 0.03488877895892337
1196 0.05035746545936314 0.006447652990669218 0.08654490664944986
1472 -0.034504259171713965 -0.08663969140435733 0.05188815644237248
620 -0.1445560300281263 0.031856412866524825 -0.14929328065473318
637 -0.0421284239319899 -0.05456334930670609 -0.02273594943891137
777 -0.10530298170226876 -0.029040712421902707 -0.08499362773196621
1057 0.04292056195468445 -0.01345790592487635 -0.04730542520709133
1540 -0.052756068918586536 -0.09310423737553744 -0.004977660536122095
436 -0.12491412176775958 -0.20404921015250355 -0.11892648718393788
1149 -0.1519761417622451 -0.06327598193139583 0.022531456426498828
498 0.1442746205334461 0.00269662783206457 -0.17840699026432155
1412 -0.05934594669231156 -0.014582323130299994 0.08005806399497162
1006 -0.13250539289023877 -0.028303301624396406 -0.08323922725999146
389 -0.10120173441266488 0.05518962680713928 0.15517707771251518
407 0.18763704195793096 -0.1078732036338197 0.054242060572690654
1424 -0.0910308482917011 -0.010504098531157772 0.05863972528752841
1085 -0.06913388855294854 0.0005713648056582359 0.012538914218459917
421 -0.10340820622098167 0.036417784306597166 0.037985426746783485
681 0.10424834969050453 -0.025910391407394623 -0.07274732283887778
473 -0.14852209513432396 -0.056279961260662356 -0.00027204477556117077
869 0.118629952997846 0.10910221994052499 -0.022118389578921108
1601 -0.08382632113938543 0.13952681659919045 0.04235904441046876
1758 0.18418800013890796 -0.1768390592544909 -0.11570923847111846
883 0.005821767000857082 -0.025637422853462294 0.18913947163194253
755 0.08840583542361805 0.05139849548874237 0.01535137407021728
2392 -0.0771727003220233 -0.00435379292409133 0.03670149538974472
1152 -0.09741965708554706 0.07615931247906224 0.18903746651296582
1215 0.02406421969768511 0.07882138673043416 0.12709185546139287
590 -0.003578158336193552 0.015666856717479867 0.03222104479254376
604 0.04426668433132449 0.033163637108539167 -0.08995720049971427
1320 -0.01177506978796285 -0.007270214367894733 0.0013346259789046473
527 0.03322935705784612 0.03037534571124511 -0.11514304081053638
1461 0.036979424036835296 -0.03911179587614446 -0.07924757132167372
411 -0.038420234220471534 -0.10938221153983899 0.01789413896418625
1627 0.02529111252917071 -0.07086305442555042 0.1464604657194427
1731 0.026024161373418172 0.1746460850011343 -0.13439080013014978
1063 0.04058279183890607 0.05675035167706154 -0.1453516675495751
1700 -0.05144847074303903 -0.029341741140772988 -0.018581927945618994
1007 -0.01819340497760934 -0.022522303669745877 0.051333313516749385
3260 0.0986708411419165 0.04122148017006437 0.007951158436545886
838 -0.060429046102970174 -0.009217543315459147 -0.03683160836849672
1713 0.07206502414227967 0.17704530272221233 0.25662489069050515
1632 0.12435405141482285 -0.0984506042933978 -0.06061174388926737
437 -0.05053292726061255 0.05021003179906463 0.08426974292554672
398 -0.2275907536774853 0.07284581359067803 0.2310849152345427
1343 0.06622261793551676 0.07124711490678459 0.0540680222135145
1123 0.03683509727139935 0.08422491697324683 -0.05308802424021339
1411 -0.10330534598508684 0.03124167021772122 0.006076038010293702
1386 0.03784749138069735 0.050335025735742694 0.06490102206120561
583 -0.0674383135979467 -0.06943296092637766 -0.09374090613889394
459 -0.08753458561505068 -0.13365123231978995 -0.12814542000536322
622 0.017745445547109 -0.0559051573339783 -0.18096111188998845
372 0.009317539005297668 0.027955427661483335 0.15766339170186622
493 -0.04076553630444361 0.03894863158796606 -0.11782720588590892
480 -0.16003039874011127 0.07750939166179377 0.0647293866916152
572 0.014301494598059747 -0.017358387750321853 0.10497671036658139
884 -0.0008828572675711136 0.1700586597301162 -0.04149081771676873
3224 0.1289757795461517 0.043761673004995595 0.046995547667281416
924 0.1809528788211128 0.18628845139321276 0.1946120735850517
1769 -0.018821360923483476 -0.013592652724138558 0.04079501805410084
786 -0.009468961819011808 0.12835879295466446 0.057829891863918494
1674 0.037806541736686676 -0.20063422051647964 0.056248460013352784
1568 0.0221269169638913 -0.13687724907030116 -0.04821228766748991
1460 -0.15421929430996495 -0.14949827642328262 0.047201032169186107
458 0.06584605453501628 0.030421468040043722 0.16596207092078843
1317 0.01864617565065576 -0.03919773769084821 -0.03160233455910082
1095 -0.008039385921511167 0.03680976677836213 0.16375428224419952
1265 0.07778041532629877 -0.05395906703265275 -0.0010548284110967823
613 0.006916906122867174 -0.14108978584858733 -0.1132782137112822
1773 -0.08486415340525813 -0.09890101424115624 -0.023999323508745715
760 0.07898073503443208 -0.13256666533215575 -0.1459210504243152
1060 0.052870746789967386 0.031243018861241402 -0.04465381225129014
486 -0.0647705692784443 0.038272595419016085 0.03501310908719177
996 -0.08909143710074441 0.04267545857785271 -0.017757045850718217
695 0.04898519913119995 0.13147259296238514 -0.03070856978585737
1615 0.04260754178118116 -0.011919294189207296 0.10907959891807914
726 0.012451995731862054 0.17793141424767744 0.01453448586323386
1092 -0.026656654206562904 0.1093865736927955 0.03314472600692132
198 -0.03923508415810188 0.05941819926733734 0.022495170653390323
199 -0.1884596006639085 -0.06214476179986034 0.07511258724021228
593 -0.13274611192929042 0.04544580796077794 0.02097685522229182
200 -0.0872458231960262 0.0036785036809229912 -0.1639157383155011
1457 0.033773104236097834 -0.0833446324763254 0.0019297130459458925
1371 0.012239014021334108 -0.07204689171642979 0.06632839925990028
399 0.15520816937518336 0.06026048918779935 0.03843306804662265
687 0.10989523006924533 0.03313443683210044 -0.07198110755655451
862 0.0795482503419349 0.07958365876684988 -0.02253311577001342
1037 0.16542384222214573 -0.15633316461614358 0.040970602437128974
1086 -0.003373781373729179 0.0024481813306599914 -0.10881144746562124
649 0.09887427480465011 0.046090895082818266 -0.036564742671995054
987 0.019594831297144868 -0.19795555020079417 0.06271061153312034
425 -0.17066597579537526 -0.16762740808244092 -0.06534588810337183
901 0.1431220619599543 -0.0022100305911083723 0.09084228735646306
648 0.06404788322563928 -0.07016861634840288 0.015596077003263226
438 -0.050477482649122135 0.05988322077735709 -0.017183433426373896
390 -0.11286259464737922 -0.06706610098339444 -0.01997847050954608
730 0.024590192727723698 0.060294277900615666 0.03800635711508632
465 -0.10566516512565002 0.0727279995690959 0.1596241738965024
507 0.16064812492717523 -0.12026470849085798 -0.010632261121984198
483 -0.12198309357417374 0.22197523932859672 0.12973566312378887
1174 -0.017926984132860174 0.014130297942512138 -0.06861539562584994
1500 -0.06493268222038621 -0.14872063016157916 0.008695885391942926
975 0.13892481789374697 0.19274594483724986 -0.20821791065898854
392 -0.03729437490427785 0.063266373561727 0.032756307093278744
1521 0.06086683959483371 0.10756407857526845 0.05535497861260702
563 -0.0041258547825198805 -0.09649254972681554 -0.027396056184787305
725 -0.028668877111012986 0.08881930573654943 -0.0358203446717449
1455 -0.19998404950132817 0.054263972425343907 0.05353860712307194
1319 0.008720003653242207 0.10395287621140976 0.037457195121760614
1425 -0.072303134059971 9.723024878639797e-05 -0.03328362944550613
831 0.14738830521553783 -0.16895529171302862 -0.009219320330550127
416 -0.023096544693225654 0.06439501936208102 -0.018798128551088783
577 -0.03716384090676038 0.2341912130854807 -0.06016752089785768
601 -0.058619235835240396 0.04494241555697267 -0.17713518995264868
882 -0.11838647077977099 -0.06733539263851175 0.08417830986068608
712 -0.012681906412340538 -0.04773385663957358 0.09222459273338082
1682 -0.1238461340323307 -0.013695889369566113 -0.03624371984428299
1785 0.04245009961723302 0.037838545580846816 0.1457218912488579
1689 -0.008402837506626496 0.1209830187524945 -0.0031386557444536183
1045 -0.023075873092862954 -0.0021001928487032508 0.10088344193515382
1562 0.09002940431286355 0.03677533713986454 0.07013553841095654
960 0.030351340728291855 0.06373874808999817 -0.11798679917083685
510 0.0566664163108693 0.1015940925182704 0.0025145100630551524
615 0.10152130164029532 -0.09542713835892946 0.12352937025341384
666 0.0030670097146660302 0.07419296022286959 -0.053410781628881084
1274 -0.11035350503052249 -0.06790298654630209 -0.03981764015632324
462 0.10615453412803019 -0.0783394664329584 -0.02789768343248083
1135 -0.08255722429394291 0.03686292346366075 0.1267279880600732
448 -0.20138256058650153 -0.051606659225808385 -0.018963559340877848
439 -0.11440269926049156 -0.03353982206353414 -0.2188327679314848
607 0.10531159548719107 0.022528458081405914 -0.06913077669489728
995 0.05108591758948005 -0.0808359205873551 -0.08020323485173368
653 -0.07801297234411 -0.10436597040134024 0.049136160139556254
505 -0.006081710743664832 -0.0972780926767355 0.09464216890004602
1802 -0.05567601258543077 -0.01968130571013697 0.058310073479245446
584 0.05516013538205268 -0.01293018374377362 0.1361451083201577
979 -0.1554340278251084 -0.07924970600861565 -0.004937583323204773
1788 0.018054030779593368 0.11474748469614855 -0.02087711640650352
1602 -0.12239123411078444 0.09746705019586607 -0.07475000121793056
1690 0.18789105286518418 0.048212783667033625 -0.06469607477520482
1698 0.011278432194159587 0.0703062569693885 -0.007423285708313421
422 -0.06281229649866044 -0.146416253697308 0.04829265971826141
531 -0.08922531706791684 0.039632584934782396 0.06789753679139542
479 -0.057597363114295926 -0.06355849830801685 0.15373646716071035
685 0.04495432618867182 -0.08411373698193993 -0.0646355309525114
1462 -0.040202274059249594 0.057201530517513435 -0.0025731436090321203
1290 -0.07479685216288608 0.03699411157087966 0.026669689602626417
1438 0.08289117238046584 0.025448782548758923 -0.13934041124652477
1454 -0.007770878526663423 0.1635670857233311 0.03488287365997157
591 0.08001218953167942 0.07737822510698031 0.04160652727295645
1310 0.04654404143410441 0.25567283216812997 0.07071594610912763
1229 -0.07711462077694552 0.08201990689933567 0.04174956967548599
812 0.0553971585460727 0.019796952756116808 -0.015392601323781974
1812 -0.06945029356125944 -0.17039653131148944 -0.052885137439237444
1519 0.15337096752233134 -0.025130491498467664 -0.07233150620099976
991 0.04003981520426303 -0.013351185280441831 -0.07578587759632835
1522 -0.1325354178686064 -0.03301175134101267 0.07006491320290076
1052 -0.1960897183165086 0.11689756162452192 0.09281010890298716
770 -0.08152644142409712 -0.013999281022569792 -0.07075717963110514
67 0.024491537089920308 0.03513904695004337 0.2429513807070392
912 0.1425763704849528 -0.20362174547150907 0.19372042983336565
68 -0.011013657857079272 0.209646924908384 -0.0015398719262745292
77 0.13318081549242575 -0.1054272567167732 0.06332185537164682
807 0.0878465942404094 0.025745427523026682 -0.1727207707435485
1029 0.1473751612200472 -0.10846695680764039 0.09095971141045155
66 0.04396425121693377 0.08620823822702266 0.18293369254204733
570 -0.0940635659999972 0.035918093897121584 0.049923439111277695
966 -0.10240857088429267 0.028350694516345358 -0.11379957793177972
792 0.06078059370238673 -0.12795281005352613 -0.14879478818182598
203 -0.1783285689558173 -0.07332992971082122 -0.04948939287926109
205 0.0756502321346199 -0.18957503591099165 -0.05419528451933288
202 -0.05962329578466233 0.04830548876858566 -0.04665613650744099
2 0.04010058393504105 0.053629994018993224 -0.07560450659193728
420 -0.11050762528171536 -0.10557585878336202 -0.040568276426428206
197 -0.040933882793598 -0.047453681806889594 0.006304116834603784
194 0.048041071814472765 0.0934956001573374 -0.11740746679786403
520 -0.12349354896095185 -0.04279215181117489 0.15685821357399557
196 0.0028845883160484136 0.01936365099205897 -0.03753956234879141
1350 0.058340117197235364 -0.13324490163575486 -0.12682249767448187
1250 -0.1152342807522649 0.040515894228090356 -0.09878747315974325
519 -0.05334330651234667 -0.019854020240313287 -0.14710731384282041
1280 0.03150583296022007 -0.022789279560162867 -0.16310014739265732
529 -0.08655571443126216 -0.043049577229023195 0.1106928354566884
1447 -0.09273163787191091 -0.025637703359655768 -0.0320285724945903
1062 -0.0684281104224072 -0.05356695774652891 0.012387291645641646
314 -0.16524203690986491 -0.023185024520015744 0.028742381976853144
647 -0.011446537464728339 0.02364584501547947 -0.04541554016561321
916 -0.10754110705501606 0.10509220303152327 -0.09224706881514035
477 0.0019909460745974788 0.003975961698041427 0.014708004655550562
409 0.10065106469820304 0.04945925254631734 -0.1707840637025245
839 0.04717352033489828 -0.2305105144973018 -0.13587654763139878
204 -0.04478026109168895 0.04158957980286168 -0.05257662836313133
1 0.0634621458283976 0.1842634205676903 -0.014087323805503612
396 -0.16145558330150658 0.1650689106464906 0.01684458915980993
4 0.08248638870476419 -0.3599212435343125 -0.0969342902833415
201 0.08985259195394338 0.18884916440943328 -0.10929270449032537
693 0.0721938472726658 0.14874357528721743 0.09996941245396115
1436 0.08811418724278362 -0.062122387950811896 0.19493999946399784
488 -0.017794838991990476 0.06940489499934852 0.005489258280755745
778 -0.010076603827015168 0.02113534875045043 0.006814968941395112
542 0.19162399474644834 0.10980412026362851 0.024447289965909186
1614 0.11308589239636535 -0.188856131734306 0.058749106475689504
551 -0.11839796155084775 0.06567365780785565 -0.06252976357148479
704 -0.13767686694048853 0.12516605737818903 -0.1049131977213536
1437 0.0461579382825482 -0.07844869739310319 -0.021875865879661154
545 -0.09911176425156933 0.12546695023108123 -0.0265684949557084
599 -0.17836742937259456 -0.11167991332815572 0.07703640869688315
933 -0.11183421820367415 -0.17150853259507615 -0.1506488031697772
1311 0.03304066371318676 -0.08634590525905948 -0.14964426335335573
415 0.018093800896747843 0.0937936314172239 0.012139140875501766
497 0.08198528489204887 0.01605902356928996 0.028479201927433244
1137 -0.17579242019292246 0.018951361908732735 -0.040037234884885385
709 0.017915165584403786 0.025375830170838668 -0.035801084479450275
528 -0.10973662589265777 0.011767536331863523 -0.10982671540692092
724 0.21628255285958556 0.005890251007522714 0.09563011834776691
1625 0.134822764534775 -0.02101943694344043 -0.013537658618941295
1688 -0.1319945105783351 0.10579869574086953 -0.04826936920183631
1209 0.09303048478667651 -0.20632999747271866 -0.027613628481819096
696 -0.11008277636086014 0.20143981417839693 -0.10374077372469265
375 -0.03863114105972504 0.022468364689352302 -0.1648381713889269
517 -0.058270107305994696 0.04318330511450884 -0.009575251410797531
568 -0.043912799775935506 0.008335357060184494 0.05179846899230092
558 -0.07563831677194535 -0.08959372473576441 -0.027053606354783623
582 0.19759043424855677 -0.18531620301697763 0.14088686254450147
494 -0.15441897310757538 0.004087554455845115 0.05691465666082421
1200 0.03524805648474815 0.03238409193778602 0.0012047625633429915
1182 -0.05519538174457027 -0.13840801990897958 -0.042259928161147854
727 -0.13200311141951018 0.040209136631171066 0.006285771677380086
1256 -0.04100205378513376 -0.0015189125378432733 -0.006514498575469022
1759 -0.04544338582755604 0.13057379393422971 0.12996190682530367
1754 0.07656220119463845 -0.1255022330171921 0.09067642626472139
1510 0.04750350235473708 0.15596673718822887 -0.10760652784169367
1706 -0.07642228408775478 0.10182029316576822 -0.01951327450717327
586 0.03155639933633565 0.069282780266259 -0.07198770370107559
513 -0.003629197859885712 -0.030382376593194475 -0.0025050873808177805
1279 -0.04490812606391689 -0.008255743351075224 0.05119827032444628
1175 -0.037401172253732115 -0.12509077093427715 -0.07492207712814959
1341 -0.0007312217526051598 -0.10899720373975696 -0.04432685526432418
2081 -0.22118328365908 0.03092902117349637 -0.17444327869623524
611 -0.20010579888364713 0.05727012918094351 0.053242163750968005
1105 -0.025871149773560653 0.1056595730147537 -0.11036738335877397
758 -0.0917374451915035 -0.01331587303511482 -0.00470811757075059
1237 -0.012257990403324735 -0.03967506941933398 -0.0601351667138694
1712 0.013681126859452646 0.0076158700764335716 0.00873101672147494
1604 -0.1292824008061852 0.10302207834726451 -0.0325688037189241
1051 -0.05164776756502305 -0.030307865700934328 0.13565655152411654
1486 0.06838443032209401 -0.023246237319710355 -0.04728790212615648
1066 -0.00768624780613997 0.1686417797733876 -0.11293146818674693
846 -0.0003709192078616627 -0.018958791342669867 0.12876805710135023
1808 0.028034428546600938 0.034659808409784235 0.009539843551134075
1080 -0.099405284282891 0.017777805234333754 -0.06091762864232347
866 0.03600095626215695 0.20941368241348954 -0.06254777687261438
1523 0.12319452243375997 0.03282498323968536 0.15578201476931477
354 0.16021373037691952 0.012948792218440012 0.05091442325041608
355 0.10617364317401139 0.09974551276941036 -0.09480756334174488
353 -0.14739347609372722 -0.08403292897365972 -0.08838161338857768
319 -0.004814086790221089 -0.005573673364675188 -0.009435469344223103
352 -0.1055410007997449 0.00967444352601244 -0.07500389843129368
351 0.0799253001701567 -0.0665263104749139 0.0704580893275398
322 -0.1888544659238085 -0.03471755561755201 0.09619281620203035
321 0.13022088211485053 -0.06620926276645774 -0.3465806554196859
320 -0.008508753207932873 0.030048295321166457 0.09339264123043822
252 0.10520934010212081 -0.16021164405825106 0.05825380204099418
254 0.01164539127610141 -0.04255852407838705 0.0732740522157551
65 0.11887484555427674 -0.010643080164752558 -0.13834514145911492
253 0.0573453351530474 -0.2667394645318191 -0.014226301255125251
356 0.018349882156508502 0.06552593382252393 0.07702832248181915
255 -0.01336227854642634 0.12885288055580482 -0.05348361943511261
64 0.03142117048030091 0.02639175664757704 0.08197132020856931
793 0.10809436095985299 0.24161107932499112 0.10714148130419394
10 0.1291631516152422 0.03101615573577167 0.055373975011202864
900 -0.0024093765313050117 -0.01875015205640673 0.06798940832586364
208 -0.0673830876227877 0.05439813363917727 0.05668790306371089
7 -0.08746431470333316 0.1279208719544292 0.02754519902830111
9 0.04824131638611712 -0.0599446004269918 0.10378314117161955
5 0.0737676063389743 0.011667662542253137 0.12680933096468003
207 -0.03268763032680182 0.03611040735264745 0.015414894466224793
206 0.04109266410974334 -0.2293371239911186 -0.02964583167606235
209 -0.02816403931655802 -0.009862292830938306 -0.05536761835338358
6 -0.08293193174564244 -0.011693516109708438 -0.04759720292651287
186 -0.17401144664807372 -0.040215321453014305 -0.2309405969204969
189 0.03507199387961312 0.12962407613906993 0.19978592897630998
708 0.035851709852025244 -0.16012931973212494 -0.02705393448852708
195 -0.17555515681491704 0.13113885383197849 0.012257547209304208
190 0.11982378054987095 -0.07310155033477317 0.10549766384203646
187 0.12824379499059702 0.20452049667117164 -0.10384438016190956
191 -0.06311087740435857 0.24970675304067252 -0.12102467818728162
400 -0.03355147292289584 -0.03359793177005036 -0.11277871464018213
193 0.049387089560728 0.038638277804576696 -0.014204756063672427
192 -0.05509493508518465 0.06270840003900738 0.02813511442428592
454 -0.04554389861897071 0.025775641188305082 -0.07126183153872216
95 -0.03488347904190791 -0.06233840075660161 -0.0828096102329583
188 0.0320784720817818 0.05165255656758376 -0.008110883962667003
1834 -0.06665008231656848 0.024889008658091273 0.03469998689620176
171 0.008994736856833007 -0.037267907612472846 0.0439609925111738
172 -0.10033343018719657 -0.008020966613592168 0.1879281166164066
159 0.14833407227395903 -0.016687486369416277 0.07972610268862101
735 0.038267980877545474 0.29785379197450096 -0.02367243923801407
2003 -0.020709556047140327 -0.06040961122381071 -0.03054433424669952
1014 -0.11755509173358186 0.21751655831969097 -0.06907277409188518
317 0.1370953582613717 0.047889182573077324 0.0700975399984115
318 -0.09068413458984075 -0.06420829279285886 -0.1170157605782076
934 -0.0943087950140901 -0.065385665222326 -0.03407525617279298
719 -0.08598188714566003 -0.07389132697480813 -0.05150801931690691
357 -0.013804713953224666 -0.15300950202896071 -0.1446751700170368
315 -0.08230780415743542 0.11924178949878489 -0.0935383491104239
311 0.004013592078318494 -0.1604040671861187 0.016215406670502253
359 -0.05128347400631045 0.05497129842371272 0.10380270005174272
313 0.10114603189773774 0.04257356192439973 -0.009742075315282797
316 -0.005140423287032113 0.21456446856154437 0.03985097240471752
358 0.11377160282925532 0.0009491658259381443 -0.077634780919864
1031 0.01157137879460321 0.05113964233533311 -0.051743578911884164
366 0.08193719221591964 -0.20330146756045245 0.01487567902089694
365 -0.01103429686097862 -0.04846697806010325 -0.14444218139687537
247 0.08623346231107108 -0.17379200552206372 0.039233352457629274
3 0.098422511049207 -0.06673773330012159 0.0876487953127183
246 0.08002464568732405 0.0024841849667973336 0.14983844851632003
245 0.05839433189050162 -0.0652890474116212 0.07628719706737322
243 -0.06488059219181048 0.021512617441767343 -0.15187916311339064
244 0.17064646368024985 0.03407052677686023 -0.08332895046520135
242 0.18219369806336688 -0.008279136656503733 0.20447955444546173
655 -0.03949236734308152 0.18749341766273356 -0.060481683327242006
241 0.05420047017140854 0.02702683457694734 -0.08538116110328758
248 -0.017776498993987082 -0.09754372091912344 -0.059409201633924366
2084 0.1429641929824458 -0.08648671589955549 0.04256613490504681
238 -0.008267235764468143 0.03946484945926383 0.07497040662771799
240 -0.08092874759614013 -0.0389085158882594 -0.018425712244061934
1932 -0.0055765344901860855 -0.09706998363737948 0.09857406666772503
236 0.03867236158278557 -0.05146777833005334 -0.1078282636475593
1787 -0.15305043143134406 0.08915963485338253 0.053443097027386414
1831 -0.04866779628302485 -0.019884691929002576 0.004485635993444811
1547 0.057213183035558814 0.11743197211011899 -0.08866134004835316
469 -0.11377876575164139 -0.04137590473964935 0.04143658692854359
2166 -0.0880638720124277 0.005705440639313764 0.1293536260255152
1458 -0.045200233076653995 0.11323715949301635 0.09037413258336713
451 -0.2556483700341505 0.16966184701988704 -0.03483021394357065
307 0.11590558679339402 0.14259342679585446 0.12075933382678689
721 -0.09048277334259962 0.06518826923599769 0.07959415653589227
309 -0.021791555690154833 0.12048072608056835 0.036275704663397815
312 0.03867777648798579 0.186826794697944 -0.028204813382112563
361 0.12332360494153047 0.004620978533575968 -0.1403973736290196
362 0.1203565111566482 -0.028355194645152335 0.14143400563712766
744 0.019083195021501832 0.07761555729335445 0.1428404821877498
363 -0.050012015683757814 0.008928970834509335 0.07631325665321959
310 0.02314857636262519 -0.01821014137674032 0.029411167909073027
982 0.023809266649314497 -0.1396725513039363 -0.06387895210755935
367 -0.01653130478973011 0.01271042305818788 0.05217097074000333
364 0.00042702473951427905 -0.11734267785421722 -0.0917336752600741
1000 0.1464942686469648 0.1358567304645025 -0.004114845244508152
2150 -0.17658666558411332 0.04466169093898073 -0.1394826053130454
1083 0.01795873510883724 0.04992090377708286 -0.005849140856356639
2070 0.04059038025787919 -0.105036985819287 -0.09745894068858836
576 -0.05362294889818534 0.1324418500402506 -0.03050934186759838
2753 0.05807940223524486 0.03176099043145074 0.05954385547435997
2009 -0.09372096287426256 -0.02021079791118831 -0.07119470150337462
441 -0.017421634977725607 0.12167723130169442 -0.1934622377576122
810 0.1108417568398587 -0.10303549188726877 -0.10390716023618933
3039 -0.052872822986622034 -0.12116328930027165 -0.08278969170815481
2848 -0.03916765702202823 -0.012906163081328643 -0.078845793264375
1915 0.13388632743656184 -0.19883194339192267 -0.004616224209571057
1907 -0.050903205948649735 0.04307371492924272 0.06310278855908301
1900 0.0418413700661923 0.04314464089557811 -0.0960211875221335
2091 -0.11485027194904647 0.029470920259548904 -0.06430266410065011
466 -0.0565512914629719 0.08502276983642448 0.052442795996502665
2883 0.2255911988559645 -0.16843156859768196 -0.036486122188327176
368 0.16463307203027702 -0.05832000847528342 0.03670539037796495
1130 -0.15837172609328107 0.1062451290674101 -0.028617747677064084
369 0.022667518891230927 -0.06101874632776569 -0.036521277733005335
2808 0.16240808790771438 -0.09014718912815406 0.16739915216251736
811 0.0500224026683752 0.19381416015311703 0.039023368680787554
1213 0.008851853491523728 -0.1101003670123531 0.013400103649298825
2128 0.1280071989649428 -0.22602378327739636 -0.013586542032844047
1332 0.07796563742344473 -0.13984540637818707 0.03854585459074554
1876 -0.07394807169798462 0.12117605425084124 -0.08410853454370039
990 -0.0021719135985580063 -0.16300609191694587 -0.02871206233250458
1013 0.14481590575087844 0.02952224365881151 0.004514077546267287
764 0.10679844901332107 0.11251880275750964 0.14235774361755743
2361 0.11515208779202758 -0.1449695452351849 -0.08465920629370544
1804 0.16385448544215858 0.007720049657174488 -0.09292347770899734
1964 0.1215211313527895 -0.1258782045759246 0.08244972620673283
1223 0.06851580258798444 -0.06458556054040301 0.15404850033419054
700 0.08320591454681137 0.05720171235480333 -0.12223373708193416
1170 0.018814614750329604 -0.09557604832795624 0.04927246012894467
1271 0.13175227705826653 -0.14958200181568576 0.13158493889661002
1453 0.12207145742460701 -0.06112942206419328 0.053889256273797065
2559 0.010260799675457795 -0.01838775925263793 0.0391442722922886
1221 -0.10564906334080496 0.18133615487901603 0.0018424623364320034
1593 0.02188624522920775 -0.02293501393809346 0.2132059412689641
496 0.10623136712248266 -0.019662154411842523 0.06781744283947279
503 0.11696779676457181 -0.08423652519269842 0.20358881737062465
452 0.0001063956969027599 0.07618448924106502 -0.011951341642864755
1612 0.15972390821422378 0.02319711097045943 -0.11388230349947684
1595 -0.016476618103836285 0.011270356522285153 0.07405347336366688
1533 -0.037961233950257176 -0.029717453020721485 -0.007438679662020884
1680 0.15065835812179457 0.027783056397687064 -0.1887591333198658
1061 0.11363930602658824 -0.17209630296387787 0.01793274589974673
1653 0.02249248527945064 -0.08864576572499774 0.11229175021928103
1127 0.1774063558517796 -0.10549276792951848 -0.30540520719975517
323 0.11519624143584843 -0.07700022440581007 0.06780537757015095
1041 -0.044491082519615546 -0.03499512389579413 0.13376366745470022
324 0.12449261835980527 -0.14614865713416725 -0.09094089798943297
350 -0.011217641449347941 0.08849397947722998 -0.10808271990015361
1826 -0.054341413299056805 -0.00688174753988232 -0.05793989417266865
2197 0.005502957514195168 -0.12869895155076833 0.04935791399110698
2511 -0.20707865061490735 0.059773071297147234 -0.05905180980384456
257 0.08601572334171712 -0.06843412044705795 -0.010551410167037274
3180 0.12240606882738635 -0.12755700462966504 -0.03939998579643582
14 0.1542059160760176 -0.06135951025956458 -0.04594286035514199
256 -0.0075520712976274995 -0.18052210486126521 -0.04346638876032652
258 0.016305986854763182 0.0013141456894874802 0.04795474621823331
251 -0.23472070100748604 -0.15845690097764004 -0.01958063821445065
250 -0.12855783184210737 0.08181307741365382 -0.256862452194145
11 -0.008261502308433196 -0.10050123101117343 0.06900697348864401
282 -0.12959050040057601 -0.0743614049483258 0.12228755250119575
283 -0.23902638467305 0.1822530745984747 0.15000740689850112
223 -0.20075185948673663 0.001449540048791026 -0.05453650163750301
281 -0.12109694670675764 0.06330205542299612 -0.05182240233831552
225 -0.10651527125192753 0.05827565749125893 -0.17429299811974486
224 -0.1267446363587647 0.016031527129469352 0.05714567261788016
2056 0.07813608468213062 -0.09622978961236153 -0.05647722988479753
222 -0.18386213602489532 -0.022142784290575465 0.11399951145988481
8 -0.01855786221080024 -0.12562872823977803 0.13397809839818334
249 -0.032654116358344615 -0.037336615014123345 -0.03794180000563375
221 0.03658320731574426 0.08601012059845217 -0.09665563622270526
232 2.2166658872051215e-05 0.009868913572155226 -0.06350260483218609
219 -0.03879832926447622 -0.0648912084601814 -0.05599715988247434
233 0.07654357625509361 -0.17677478511683342 0.24190311828872396
227 -0.036589898857817646 0.2061629081820859 0.03966605157149622
229 -0.012811797666042917 0.04780664899213734 0.041542369792507985
231 -0.17137869371988426 -0.05336411640719579 -0.09209538907756294
228 -0.04056376715901785 0.08206628689871981 0.030989239752683844
226 0.04151744278327211 -0.1266612668346649 -0.04477799389840774
230 0.07916395060753852 -0.03194427890831317 -0.019649337904278467
217 -0.22934662547994647 0.17846905834845558 0.09470656640288413
178 -0.03542726854384789 0.007392902281700513 0.014908611505107753
181 0.1638899966929298 0.05424290854849802 0.02070224909784489
182 -0.08947245171427855 -0.000891771855283531 0.008257637151856661
180 0.025534857689360507 0.0687112477275755 -0.1751098152981852
179 0.11114946676062566 -0.01548967827822573 -0.08167317709473366
2722 0.0556271528529161 0.16800618633748068 -0.12614377668418925
183 -0.08351116943480118 0.06041011281112543 0.0215948838309826
184 0.13795238908225738 -0.09162577230764407 0.051257601415690635
2147 -0.016256993242960843 0.024634307564190775 0.0003087016139595236
870 -0.1084227940821698 0.08416779291212699 -0.06361317085672082
2105 0.011612750793473377 -0.16554345674086313 0.0281257758997047
574 -0.013342380983681838 -0.014521974094795968 -0.04463490774780912
2865 0.0728166163440934 0.1401442864165322 0.07589363520620336
2357 0.09768236264142317 0.0031090979136882482 -0.045611296495961795
291 0.15859278521326658 0.38054104085087326 0.06433418665160603
290 0.0013207305846974424 -0.15714335421262132 -0.020731144462288163
288 -0.028751074171803198 0.08756621708156158 0.026801366901507737
305 -0.0734022326457452 -0.03166462039270729 -0.15993757594444816
293 -0.11425699390759006 -0.011324074587765555 -0.034331307826484074
292 -0.03365110423056664 -0.07657700718543375 -0.11285194275236377
287 -0.0022431571970118955 0.06244431999737716 0.010097566832605667
298 -0.06300520600772999 0.02642189856855104 0.0036303546581190876
295 -0.12707665076123198 -0.022377401778197973 0.05918509954916186
289 0.12529391876107182 -0.07070887420959737 0.06347942461824628
360 -0.004279283702877373 -0.12519559884951523 0.08974975045205333
2133 0.17339145341266912 -0.08453235002420506 -0.09845318129766147
304 -0.11145901540323744 -0.15823312329356948 0.019854820224524325
2254 -0.0713338806016164 -0.09581055723685 0.1704560549810461
2020 -0.01578732321937843 0.08318004654282077 -0.11514606344829953
2503 0.031722716504912894 -0.14852236547655492 0.16404826528813576
235 -0.10812790820423737 -0.08084452713994277 0.29720313682534527
237 0.11895379890298098 -0.1684392082511236 -0.06536748159438181
234 0.017012536065407625 -0.050089634934499555 -0.1368291827848187
239 0.1507417669829305 -0.042365510148471605 -0.034835424375794725
2089 0.012954435318939361 0.010325887465909454 -0.19861588857567292
1870 0.07333470563317197 -0.01028502229298711 -0.1277677897175602
1934 -0.08267163647584039 0.010558789389482633 -0.1304339320379652
1732 -0.026531077193573917 -0.022625486700856106 0.08154807393009414
2375 0.004718794211297395 -0.023866559913996263 -0.0060250949031954645
518 -0.022889538350061977 -0.1673151901923675 -0.07858716934971774
2416 0.045329238243974494 0.057773458165723574 -0.13312896079945355
2603 0.08404168665124172 -0.02962326041173742 0.1292603173457782
302 0.05166651362586881 0.04931721293461644 -0.09531182312800605
306 -0.22553098693308332 0.0566143335469665 0.041131413388565616
1392 0.08375044376433836 -0.024639374046957183 0.19322725882387307
301 0.012087753211828933 0.17238421329731102 0.012395389541219756
294 -0.10806139472824293 -0.049035581974377206 -0.15285375164445553
303 -0.04551401280286907 -0.04371401252661829 0.1980284398058385
299 0.009632128791788586 0.22926449086921413 -0.05312092739014018
300 -0.11729686913163821 -0.1269208727286867 -0.202306329811239
297 -0.07724455558992499 -0.1480371632386685 0.02370276484487033
308 -0.0743987928241795 0.012066151908949246 0.17818986780771082
2527 -0.020666555664187847 0.03142905352703243 0.005505799628161764
2261 0.07493888687897238 0.044870000769238916 0.12652947285107674
1983 0.16702823597841637 0.2167547004065666 0.0850729407797217
1910 -0.06976608760292492 0.018270664714085665 0.0077928737010277225
767 0.10378320427047882 -0.1112026823373932 -0.037166729900050204
2425 -0.08201513944430006 -0.029041184743383935 -0.11292488392388111
2057 0.028012605183114367 0.13906669264897004 -0.11073661303762881
1936 -0.09451578829501939 0.0026073844657464006 0.18414908473616434
2523 -0.0061126395763160535 0.14878611324624655 0.0791029216514684
2992 0.05023154514151039 0.015653417258145837 0.03482041891163956
1663 0.053826607326421215 0.11012081655957356 0.07578346584583942
2213 0.10659086282717246 -0.012060015269282593 -0.059051318703805485
2763 -0.09260678848807107 -0.0758215021067109 0.08050649356111547
460 0.058124714035084284 0.09146869032578542 -0.03795694723245564
2380 -0.06723600539240829 0.006288563759305577 0.18274579050573203
2842 0.0010467391758691939 0.0055975365889901416 0.01912161793733559
2013 -0.07641204709468512 0.06296932618726664 0.0454132012410674
2655 -0.10241146161273627 -0.17918884897949736 -0.05831324965265203
1823 -0.0942714499229323 -0.1691088665834104 0.01716691171147334
1858 -0.19790115512056955 -0.055505438643921455 -0.05085016966462826
2664 0.03140279766575653 0.054119468479567126 -0.010724904368170966
2333 0.12932345641416582 0.051511496756428285 0.21425934337392327
1866 0.01473362527304177 0.08340235550972996 0.026964435861280937
1664 0.01678639732621401 0.21527419121655134 0.12931708915897758
3259 -0.01534522348225395 0.05401260761167574 0.12799121862916052
1094 -0.09425402168549467 -0.17815595121098843 0.018985689183100583
1099 0.02376456409314302 -0.04637574299639286 -0.05489149474705548
1495 0.1832651695085873 0.13832266906012353 0.08715999492920747
2257 -0.045861103219877034 0.08616042492840405 0.04886712706365655
1921 0.145454573947674 0.10261157938212333 0.07743790929901
2151 -0.020856284204710626 0.008154329478686877 -0.10113886278956082
2027 -0.0497372915481844 -0.08086457575579656 -0.08196219344883078
1313 -0.042518948854751715 0.16415548098769733 0.0759879344452832
550 0.0528913674225575 -0.09311253675075952 -0.09823822210231796
3051 0.1734007167305535 -0.06889962774118157 0.03998216110751194
569 -0.0920426319600081 0.052844738957720454 0.057406931644840904
1913 0.028724348862956862 -0.02265804017598788 -0.019617412468418735
2829 -0.10670980889182773 -0.06422440070799701 0.01561955715985077
1740 0.05746196858793733 0.01783148955746233 -0.05869032315633754
3001 -0.033326110091314684 0.04088549219702181 0.0483111678023069
1479 -0.24340606607963106 -0.03889668367269961 -0.02676636518126757
978 0.04785912073299485 0.014699830380843569 -0.09647082933873663
1669 -0.0925043680806993 -0.09439449698190161 -0.04899582037095222
2322 0.056154603112573725 0.0904654112020521 0.04093807286472541
26 0.03774421261718872 -0.1148704908184601 -0.11608423314779708
27 -0.0607139500727805 -0.13277629932044163 -0.012594516195659593
24 0.1571866444365122 -0.08658931575142176 0.20324038235775738
22 -0.02336279511797778 -0.1429374283967766 -0.03000564592261703
25 -0.06858205681249124 0.01008019041078375 0.08210379685910292
23 -0.0519665771585264 0.035774633468601234 0.025119237188270263
21 0.011459236582810495 0.14970244007454847 0.04304112082763319
2276 -0.10381640987953449 -0.049293200621437466 0.027830679504226075
2555 -0.20656419886780358 0.08591771503506035 0.038239056283576246
279 -0.06598917878451487 0.18949426720526485 -0.054695215247545725
280 -0.04127965839237843 0.16927861832378874 -0.07281600150688837
2068 0.03926610093435242 0.05281882899244987 0.0660261353082407
276 0.03004600683291468 -0.02072632386220706 0.11040144412196891
1856 -0.060483827429245754 -0.019485670190610288 0.06955586477962408
278 0.036067130197805386 -0.06153791375466398 0.04649669316486277
2465 -0.07696565799153657 0.05024431193251121 -0.08523993957691244
215 0.05454170345973477 0.11127814916501863 -0.11126857992337703
216 -0.01706266190988631 -0.09274416705447731 -0.1708226185882408
2075 -0.07399716225845225 0.04811216402663087 0.03740917703730371
2042 -0.07436357363273381 0.08539934808585775 0.02076926928444656
1888 0.1029101241030152 0.02684221845049949 0.08950103013578176
218 0.14464979590281102 0.057851096691784634 0.1861548243372065
2189 -0.25251968562825944 -0.04711278027587474 0.04856400383673827
2600 0.14559777471658025 0.10603457335340749 -0.05062422666666643
1919 -0.056965560955424016 -0.08622108452450512 0.03519929319389984
1881 -0.05643566761403617 -0.06799957858371916 0.04115849537712715
2517 0.026170863240411305 0.03564426158917769 0.12654406888862457
2155 -0.03230413669831747 -0.01966379594302889 -0.15500101144785308
765 -0.08630793187893948 -0.023054722849920998 -0.07917291035908465
2816 0.11869093551868819 0.10202123477092076 -0.03573030496616897
2671 -0.05376997955044038 0.11416324026038843 -0.06500761026776128
2219 -0.07993650786126677 -0.007515271461294798 0.14167131985073442
296 0.05462995753367766 0.03493322094459975 -0.02164571480584232
2120 0.06576733976817323 -0.00814879529455918 0.06944510350633662
285 -0.13395764750923536 -0.038045564035447836 0.026179032014383027
286 0.0049484293974970135 -0.048827832576522 -0.11948110278348126
284 -0.062083048983854916 0.006005531212561236 0.1262123019059842
2491 -0.0007972142034650478 -0.06362235363410758 -0.13099858575823423
2538 -0.03147619260341544 0.009863051996112026 0.06414699845870733
2086 -0.014765663333434008 0.08567355275550866 -0.015405338091751018
2185 -0.005666436546162381 -0.04437134062929433 0.08682097942908146
1909 0.09956984363960719 -0.05114728245655883 0.0870167295729021
2036 0.08453447637233555 0.017423719300683333 -0.046652280519733975
1893 -0.15078658483549592 0.09799854337814316 -0.10119146937895084
2115 -0.17195536899888939 0.12390549302706276 -0.07661197733477394
2138 0.18132935840638942 -0.024151917891502915 -0.07221529036820679
4997 0.028416504683525322 -0.058537652777733123 -0.028165656853223
2700 0.055878310866111 -0.07568304385209162 0.07943682140700614
2516 -0.058635105550629896 0.11180921859972251 -0.1515659842682081
2255 0.00018256845654519502 -0.1936502194509126 -0.07343116924090257
2698 -0.07539380778769171 -0.017672581575617605 -0.054505002024406723
2665 -0.1739251693276874 -0.0513755105617256 0.005342389095380125
2167 0.09405035806140453 0.18267791047962523 -0.054727456630954054
2102 0.0024972324576535087 0.10752333920724895 -0.03537804124643393
1989 0.015202097289450659 0.057884994101663555 0.1508621625004608
1205 -0.0007144673225824329 -0.11243775612665276 0.03084527125452706
2285 -0.10578623471876544 0.11604891391738438 0.08082191160318629
1865 0.05649499759154158 0.07366924374161946 0.09169453072710378
1407 -0.18358359372053562 0.1473851764190411 -0.15462406916057772
2060 0.17943913198048897 -0.06805408301291298 -0.07038672183730607
3206 0.1979496200515498 0.00442596200424826 -0.05297856002502069
3022 -0.04546749778006386 0.08320418617084657 0.11168852446992295
2396 0.02262536225983182 -0.03018379935650665 -0.0942033140884588
3170 -0.12442716307399489 -0.006949889104047546 -0.01977958165362522
2885 0.014922654440330453 -0.08751871712464167 -0.01802926231749293
1990 -0.0046870960172028416 -0.07871687242659131 -0.2041879308734321
2667 -0.1430236255473272 -0.06618852732589155 -0.025038381777434657
1868 -0.08818975273711387 -0.062171322397024296 0.01902132608835668
2860 -0.03952914609588197 -0.0012079232270463432 -0.0007332940078063968
1912 -0.05991535142069307 -0.03921496059046135 0.1288806620926457
2904 0.06310762337218959 0.029303637907599406 -0.05708864309448112
2006 -0.15894884969624037 -0.10850395162001887 0.02080113981995438
2039 -0.09986487346410607 0.006939889310164475 -0.17375890509919856
2897 0.18005242863413914 -0.008343861252178945 -0.030065564226984254
2338 0.015550634913232428 -0.08887908704510483 0.1366552535177235
2240 -0.04985818718840329 -0.10293064120015984 -0.006169916921721216
2407 0.13586185869152223 -0.048160218025183714 -0.19484202557453467
2458 0.051632673383564226 -0.1114955117170805 0.03481436253647114
1930 -0.15330931984877696 0.12583187215222735 0.09334477485965847
1993 0.06276068731887356 -0.006395780280438551 0.02775218679506448
2038 -0.06176241065290189 -0.11644380301263299 0.07980992791990638
1862 -0.10268298220416933 -0.07216794345034239 0.04195632716931959
1940 -0.0358132514145627 -0.15736446150865088 -0.030884579072396223
2191 -0.07918852119569272 -0.02582846575906821 -0.10975521468269299
1981 0.022713956181213992 -0.08459761556194056 0.07484012569567129
2694 -0.0019597289016789004 -0.24897437660185778 0.011455650240961984
2048 -0.11580873520859158 0.08311099497149586 -0.00022214522846737608
2650 0.06728847450681268 -0.03596080859102156 -0.029776716464030937
1885 -0.11811794105130283 -0.01586372532079732 -0.20947165275218685
2820 0.019838765828292 -0.09042615518146949 -0.11393999806632331
2267 0.1988415711631471 0.03164296782694538 -0.058685325520784204
2346 0.1342793640313789 -0.07812449972014915 -0.10346661651238853
2414 -0.14852915826807708 0.12601762468579533 -0.04204867263735593
3211 -0.05093981886901679 -0.04209442762033662 -0.06170071353488726
2282 -0.19124481351293748 -0.010913634789414671 -0.10669517813199039
2972 -0.08760325177575352 0.03910494510482152 -0.03254832727189729
3149 -0.06264429086953259 0.1344497952768277 0.10395896051433894
2326 0.09623896784548817 -0.05714491558879659 0.0355901517642985
2973 0.04608593801057555 -0.25525272083135514 0.1312986481052858
3213 0.047119311934841215 0.05345069782385886 0.03409388916423049
2044 0.0031462812140672855 0.22764409391110382 0.02087160543668525
2598 0.039704269217264596 -0.0538464462973323 -0.1353193013040759
1988 0.11316511101303336 0.09087747110199752 0.1276911789650681
2747 -0.021969243749829403 0.09743801713978448 0.1608958537977411
2461 0.06262074706978613 0.025303415987673914 -0.03663771217543465
2209 0.022811026670229523 -0.15542055981491704 -0.011278639533220466
2739 0.052586879665515084 -0.04260348583921801 -0.059839520713814216
3129 -0.02117448444924734 0.07562044577241422 -0.05414088431120104
2098 0.02155111076554428 0.11827676414160358 0.05615078772899773
2355 -0.08996861842727091 0.023962308396429814 0.1785434103853356
2551 0.08710749538782109 -0.0930223521451523 -0.03360620485737865
2131 -0.014491969700767994 -0.030725775128141394 0.06326208602006515
2148 0.013215846098791641 0.18336117961282458 -0.3649325665414358
2903 0.1561887783111827 -0.004620114303431863 0.04840047248492241
2498 -0.11304839925622656 0.03144137680197901 0.05858529832355568
2390 0.05070923488084296 0.04705592001117584 -0.05042798625359198
2413 -0.056472502793896456 -0.10192289623112777 0.03336965478051997
2348 -0.04532417979718378 -0.08350177980974163 0.08625903357889672
2472 -0.03148915814887468 -0.07133206607252648 0.05454140685607904
2159 -0.12144873331919011 0.023637718519272766 -0.03812824495461739
2590 0.05474054951608588 0.17460292761356028 -0.0004435706847544273
2800 -0.07526097649631107 0.014781141841372596 -0.030302010193910284
1904 -0.12733993885922495 -0.022081495715621454 -0.07345415944791153
2662 -0.13035908266336332 -0.03076099326317202 0.00824190787396133
2548 -0.043715707245298614 0.07623042826551787 -0.09373077017878183
1837 0.10882734544146078 0.09416653393724943 -0.03297697924971605
2624 0.07381257575713535 -0.09247139797936368 -0.005836235529079442
2602 0.20756579873642642 0.18250166411990185 0.13575765883345353
2246 -0.08564300588489648 0.0030772465311745562 -0.07140606410617469
1916 -0.06207448902106849 -0.020361934090539754 0.0009607487181803598
1822 0.009753153822031891 0.015355296238836271 0.04581061354653658
1901 0.04121199980685818 0.11130820276473709 0.029155157876330256
2513 -0.019432214521801414 -0.05813115017352095 0.16679342431995173
1933 -0.07909095594548962 0.045111461331863986 0.009120006379532315
2656 0.012664861707659066 -0.09194693192898837 -0.09376381431674342
2059 0.053842483313856354 -0.08765745472049179 0.03546534832090121
2834 0.18037517963822258 -0.05343395215814184 0.0793706909968398
2524 0.05626912998683993 -0.03797388515847687 -0.13320840606015474
2543 0.06688418616182237 0.06614036215055699 0.008311362066284128
2576 -0.09402522682739559 0.016190082319214025 0.15606628288159283
2891 0.11415470109449197 -0.060151905939740076 -0.04820968249884386
2054 -0.16625115387124917 -0.02579506863842093 -0.11792316414339174
2558 -0.171050709560658 -0.027531109210431486 0.06264337665285542
2244 0.1157367281528254 -0.05534032464607774 -0.017202854420262512
2072 -0.059630569856225925 -0.05701626414926843 -0.13062365676726115
2844 -0.011163885402868914 0.07221027103691069 0.052888321663123294
1959 -0.05721099303725956 -0.22969041240327212 -0.07780064830158312
2757 -0.0784449199271388 0.06775812346520464 -0.24382599912571168
2194 0.30092278019611485 0.12958313429125803 0.0291456900964723
2095 -0.080216909501998 0.06567513691496998 -0.05394948050498538
3245 -0.16211357708338595 0.11565849059130952 -0.05537876862109541
3010 0.10630734691222585 0.1810406514940141 -0.10245197027407996
2749 -0.0976302168929444 0.13642121493184042 0.051252129962464636
2233 0.14813370148508548 -0.03751340543532964 0.20488009627998913
3081 -0.03547957096424281 -0.1736191287959929 -0.01974032370659676
3093 -0.05507223944265566 0.13723323829942968 0.09767579330963777
2221 0.08343735596888108 -0.00336039085068544 0.06370876341896456
1941 -0.009219501094818734 -0.013820011291377502 0.031877627867331254
2744 0.1291372731530104 -0.004948050000280348 -0.0015949253920947738
2778 -0.014701751360912035 -0.10817266239763604 -0.08288368377501316
1891 -0.07134792050383623 0.047669467778988714 0.07525801818761133
1839 0.08956330102333436 -0.011684767359606336 -0.02559277368594689
2111 0.16424353055297403 0.11637246612147661 0.010942584063667113
1938 -0.05941669617345869 0.05816728912394868 0.004030067517519838
1874 0.06882009922583013 0.00027471955572584174 0.04568296207155517
2032 -0.0044139518729187565 -0.04027572685319948 0.0638684347226526
1949 0.05198832235379362 0.05669414177048776 0.07451808546260959
2382 -0.09980586946485767 -0.1717284728920512 0.1001496142274167
3257 0.01951205562714727 0.12780109052288866 0.02794259073654631
3075 0.10242802777946676 0.041394844736558155 0.041911248157106264
2917 0.08599607548446742 -0.0986531980601556 -0.0839570287044948
2489 0.028154268906943072 -0.10761959139047375 -0.05213456571505808
3254 -0.13061312005557169 0.023367331710410073 0.023501239097316638
3251 0.10573055813363602 -0.03750529400306504 -0.04011602482295838
2252 0.0820206582281252 0.1449472376050385 0.09036674554255864
2510 0.12561202450944117 0.08215627297353327 0.06860406927982812
2785 -0.011569782988871315 0.10564826943065228 0.09745348372247539
2879 0.09759883434271757 -0.045964094778241295 -0.20725315681345494
2149 -0.07775539473580573 0.051652269708356444 -0.05967329230268415
2681 -0.07686961434588409 0.008733759654818173 -0.022102051423465913
1840 -0.019305737807566482 0.18312165672092173 0.03829690098077913
2822 0.16980415246199618 0.26570752944103393 0.13355763042592064
1977 -0.07142775439103127 -0.06257059478525918 0.05879709950749186
2092 -0.013304889929173318 -0.014715768241903023 0.07618802191499406
2216 0.07457311485053068 0.049889295485662774 0.05583893365027977
1947 0.24082348110081558 0.034753059513813814 -0.12438710172727853
2041 -0.0013433751443168804 0.1123170471796312 0.021722131412868974
2969 0.009324882000174128 -0.07628848502352176 0.10949447398868932
2924 0.2008210588506707 -0.0010215393858457739 0.0542450781158517
3092 0.05972867583816314 -0.10446866153666431 -0.02057983856194507
2165 -0.05883343456529092 -0.010269337831980915 0.01738717325456978
2379 0.14438407624010274 -0.08781915057454134 0.14507893538449862
2420 -0.07346594292132985 -0.051052130292806364 0.02019952865690749
2993 0.030903460590172706 0.07280206857989804 -0.16266210488700977
2649 -0.03147563126932295 -0.1335492117405736 0.05267150361629246
2634 0.06255440544377586 0.005994024605412939 -0.027806289018816842
1917 0.07866001989163271 -0.04959403710749139 -0.05343007278693613
1970 -0.12907862481879884 -0.03699046564469195 -0.061380366905790115
2103 -0.13610273300543974 0.10299146959468683 0.049749187614231846
2294 0.09042888256139149 -0.005818660963268206 -0.1067010936832019
2116 0.016405043732811993 -0.057544312276212276 -0.0036137717827236723
2670 0.015634886945455125 0.03770836760530724 0.08775059013467888
1859 -0.07983845081330873 -0.08199427877222612 0.02673516913746856
2455 0.022248311967001395 -0.033488621196200066 -0.07780052334584713
2202 0.052942400682635365 -0.20689423888730615 -0.11407589274186337
2053 -0.04154076972308548 -0.08542929157178161 -0.02999385224105909
3108 -0.014073322347250868 0.040084421145533525 0.13360741065587445
2932 0.047476466222382704 0.08817953552105529 -0.13949308435596625
3079 0.08453220413128579 0.05861222043421998 0.0934363052741784
2544 0.11993140200537121 -0.12810655169565938 -0.11841666858326416
3090 -0.046368808403236136 0.019448709830535545 0.07723557207843183
3191 0.09244957624211277 0.056272998219907916 -0.1044156608754796
2141 0.0007749522010366862 0.06331734652393027 0.05239704382772717
1995 0.16141483527082617 0.0938646212100794 -0.005770584818761599
2604 -0.031893538931053456 -0.04240046086551695 0.08689703630665062
2572 0.13784798593989345 -0.1409101338796461 0.05114522878550293
2789 -0.019093671776511927 -0.011868246940244749 -0.017264142965997577
2022 0.12097960526770007 -0.020417876164973404 -0.08996864280240452
2179 0.032417682766252336 0.19133043028479146 0.03831871036591706
2984 -0.054059439458367 -0.2045832551923669 0.0031820265253564694
2337 0.0970768226282108 0.06745882527256852 0.031601025284691275
2024 -0.05466496766345424 -0.036055303248410095 0.00790120381209792
2660 -0.12269019269323123 0.11954901476981164 0.23490932545963797
3147 0.07000328797609769 0.0029727342716418387 -0.17229353120490992
2393 -0.013462268251557823 0.02334236576562869 0.1141422105948378
2831 -0.03884303300207943 -0.07342852722384281 -0.14441101427748293
2504 0.2037889628863052 0.12390325182842135 -0.025163388227014482
2978 0.05587332187992339 -0.07203145476550378 -0.02208491575469531
2076 0.05415895690392636 0.1383910436450623 -0.029030310560772016
2621 -0.021131101530266885 -0.024550060626716285 -0.07425318180194213
1942 0.11791281884362968 0.07140938218030524 0.18972592763613383
2894 -0.0416266309349668 0.0312567580388929 0.10087839830151456
1925 -0.03442748899020179 0.10702029932740614 0.049868623942379446
2157 -0.045847691883269565 9.57719820178695e-05 0.03524776739631201
1973 0.053125320302214 -0.010953855061626397 -0.02565057283131127
2703 0.05673050579559911 0.04744552142875672 -0.08046262113999281
2473 -0.0845295522880344 0.07799899265482846 0.02223670417182127
2381 -0.02561269479477438 -0.005058412462282459 -0.050589934726765304
2161 -0.09780044544503155 0.1479065077378447 0.06449193977787802
2399 0.006115062304639761 0.05469052527908265 0.06501538485267257
2182 -0.07560781977330247 -0.15131087653265432 0.07506770145745631
3056 -0.13828982668739656 -0.04494141717597962 -0.014876900118374076
2324 -0.030924523641635494 -0.08421622763018678 -0.09359602991312173
2484 0.046381727335314836 0.001635598282501094 0.09932497747478482
2537 0.09611230837213172 0.04901944034865474 -0.10187752549421894
2956 0.044707888935193806 0.07638034041938069 -0.11065057438608987
3012 0.08798614115655883 0.08250469673423325 -0.053262060862673405
2210 -0.21056405323638058 0.14891553073199143 0.04046457454494173
2626 0.00435974682454111 0.10521771195675317 -0.03397446679783817
2866 -0.05635509825324679 0.008422645646702264 -0.0404753698077369
5249 -0.04761837992485292 0.013229728588152216 -0.038223301610548814
2684 0.09178325175927499 -0.22108940634712088 0.05682881697301435
2803 0.012146350343572747 0.0718569892439554 -0.022160314622038966
1838 0.07386339030039485 -0.12501620650397416 -0.007890644981326397
3154 -0.10551372813553238 0.09485570359651335 -0.03647979967951105
2692 -0.0651115644477843 -0.07120749438872873 0.0968406909048403
2750 0.12702747758290805 0.03474824528452137 0.008175372080747194
3176 0.07503436633203946 0.09154481695483709 -0.15638642590084745
3185 0.1266549425543732 -0.06932589212445893 -0.07737479988893753
3096 -0.011814105293540598 -0.07696533665397538 -0.009118037643117359
3119 -0.04695820936571524 -0.025847856149877106 -0.1052485487779815
2329 0.03838737456443126 -0.06524884214473259 0.027728777091633235
2432 -0.1570884714479248 0.07400341949986101 -0.026283254793998706
2940 -0.04703035826906491 0.06521351683661984 0.06913410140544823
1867 0.02689921334378345 0.13401564791989726 -0.08543528432450029
2011 0.0998462433241292 -0.13931080815369126 -0.07219581180891903
541 0.17131134061337844 0.13432686887969802 -0.06431049869430681
1972 0.10717547538337223 0.14236847762097013 -0.07061682614273188
2171 0.11470196452208264 0.06200812072344815 0.029918988300160532
3033 0.07660507120333997 -0.02978687127229193 0.03943979504157879
2447 -0.0577763635678654 -0.07968925858095667 0.04811933245997357
1048 -0.07806742531948184 0.13311767962491894 0.1212553852940586
417 0.006114325414151887 -0.027587829899976032 0.13877470008206988
2428 0.06441216262398705 0.07934543260582898 -0.01678044100426089
2499 0.020457291871464143 0.06788141516686066 -0.17655778392302843
2289 0.09656574558104031 0.003518512501289161 0.12277327626478104
3238 -0.06205899481971812 0.1531468736247794 -0.01429551225832781
2335 -0.06095472086253107 -0.11504086498842656 0.10159576819544262
2222 -0.12762851853221197 -0.14051690966681893 0.09916984441089216
2871 0.017193555839682077 -0.06893416873999342 0.2658037558124846
5054 0.060718693445229906 0.055221932586439176 0.03509409091641971
2704 0.13165764709916666 -0.02953469489842684 0.06911064135695276
2063 0.014425571194375774 -0.15843668023146296 -0.01968158051198655
1832 -0.12197113637234787 -0.1780997060933025 -0.1049658519591856
1306 -0.09378427028774412 0.003541503389383617 -0.04136385241789828
2637 -0.044457045779125556 0.1633379944830797 -0.1416959624796254
1335 -0.024227952561516886 -0.07155114191076566 0.08623970800992016
3163 -0.14452481118679378 0.04985250722582398 -0.05990925556552167
2927 -0.09310188881137588 0.05265887060022194 -0.08087954751951282
1206 0.1436403039104279 0.08180904821126983 0.08110198025768217
2384 0.05112963350827409 -0.12656415048452083 -0.05042081677202764
2435 -0.03104469149341077 -0.020621235440320157 -0.03131186990711851
2941 -0.04708009546399322 0.07606153267869219 -0.03328082133346309
1059 0.07924293754410235 0.0175327826388983 -0.09260181532398233
1618 -0.0221316063016209 0.08902123251737334 0.03609026098472396
2937 0.001415402176159479 0.16558513479832143 0.052860810303647865
5060 -0.019427899927574013 -0.10724608706397837 -0.11273970988100937
600 -0.06931561890134949 0.2329563895419339 0.04849383952019289
4972 0.019642554506883247 -0.04772154126918125 -0.14646902961061725
2852 0.1319660759102028 0.01434221718294547 0.028743761239887172
1902 -0.019612383336736757 0.11491087974008915 -0.008648204742186243
694 0.02523596299039399 0.014983976309428729 0.014889229772395478
2178 0.057700350709642086 -0.0464418130839067 0.20590018988800549
532 0.3036468761658773 -0.031395497291226274 -0.2034201847638008
1267 -0.03185065406376481 -0.036230299169188164 0.08947712169643077
2901 0.07593631023400686 0.12749896118998558 -0.07917580170770026
2193 0.01208728123009779 0.030970798425323406 -0.09571421677899974
2805 -0.004960351783264524 -0.08023208935813267 0.12267365604050343
1928 -0.03173957097293381 0.007517477840742602 -0.012931346410112472
2129 -0.08335105769331516 0.028306935587509525 -0.026318194994133737
1064 -0.09463772906811287 -0.06831064652332047 0.025836965882946997
3104 -0.11259540113868385 -0.012117267248643315 0.09201711559566213
1592 -0.06491329450462176 0.24655572959057157 0.06754681502314744
1636 -0.019388934597725727 0.04169098964654777 0.006887458291268876
769 -0.0157983338790253 0.116476368509179 0.06012886872752977
2278 0.016098168121742015 0.06448376372096759 0.061053187395390035
2241 -0.02743043252180881 -0.09201781904160904 -0.057876232814348005
2552 -0.32255037656851004 -0.07359000196419008 0.009165473487145569
2886 0.1320710412642258 0.11392102378305621 -0.08925665475289377
2651 0.04227944696118564 -0.20707790625516936 0.006192610525974567
2875 0.015425942675937446 0.026270421905539805 -0.15841400346587253
1417 -0.07149077483099084 -0.11942681275944904 -0.11520581639431063
1183 -0.035368478377843474 -0.11480643515750712 -0.2137386421164834
2896 -0.008703094877284186 0.04058896111041518 0.011298256566145273
2018 0.0653589943646959 0.07229392474582255 -0.04494222548765417
1920 0.06123121261011913 0.06247069054608003 0.010068834613476517
2853 0.02565566951879517 -0.02229322287152698 0.023603597950441774
2478 -0.06855977272235524 0.04122280777870069 0.023677393978415198
2919 0.08486962857517436 0.010420232374664273 0.18252206262023832
3052 -0.07623782771191988 0.05984807539751574 0.031657074522215375
2986 -0.07932882250764464 0.08877417781340766 0.12620071712753644
2923 0.14725475052348028 0.08484978280322479 0.05759076107211698
2266 0.0028773468057543966 0.04165728001933485 -0.11088415482431105
3054 -0.027680381167452132 -0.2428673994991083 -0.04903023212131906
2046 0.05619425820704138 -0.03425073951407212 -0.013211470413870842
595 0.032344947716538716 -0.06618288775921433 0.18747102539241653
2889 -0.009780767688942309 -0.057910171938652825 -0.01047090616095877
1268 -0.04451025423063522 -0.10895313584176237 -0.07283979205095648
1443 -0.02943043974421722 -0.023918921543531493 -0.059491892995163845
1299 0.009391590173873334 -0.026619719080025615 -0.057321125681988674
2661 -0.09749887845041301 -0.0636012365439702 -0.04871562107141508
1961 0.1704536954183669 0.04737368822637709 -0.031013809449951853
635 -0.20513902979233464 0.028676836755532797 -0.03651071278202605
559 -0.09763373758240189 -0.042008687168797 -0.023086632043453778
2104 -0.10042991992827272 0.1508509137340371 0.052070346367776646
463 0.10194770399165543 -0.023694900368052198 0.05302116030847774
1102 -0.04288026303280664 -0.13559592710359966 0.05001438608097632
969 0.05861904997108927 0.05101918227075049 0.10025424372611634
2437 0.04916787137381401 0.1675979643652586 0.09295552270967883
3128 0.016335192800276607 0.08521038283572296 0.12152216876643747
2369 0.062281590745568556 -0.010237335993483459 0.017674892529044667
2342 -0.10856620248334195 0.05847235314682746 -0.028608658500637405
2368 -0.04822854796517734 -0.08244570771632705 0.1399373088150102
1846 0.11688693820414144 0.09314942402109472 0.01783899016712112
2795 -0.0821092549565351 -0.035915617981049947 -0.04662263882669871
2144 -0.07451939605899506 0.17410982511528791 -0.11013778220714164
1210 -0.03561665366233005 0.016725559799035405 0.025755214980542514
2802 -0.12353974920821846 -0.11648960997236722 -0.08789958968175215
553 0.10819203618909748 -0.14579471706693103 0.014833267653705207
610 -0.15382744867225387 -0.03952532257077838 -0.24278211828660598
2486 0.06473016538092159 -0.08737366229761152 0.0938735191159436
1391 0.12993918669232454 -0.12470804589172556 0.10699867418241385
3212 -0.11210266888018504 0.12942573358781734 -0.008714085162210611
908 0.08801665134126414 0.11078106217871726 0.0271292250829786
2281 -0.0947353604239108 -0.13614846264227354 -0.08715126062496979
1710 0.012276284705534768 0.04767314237836806 0.16327745820010306
2225 -0.07838765172110428 -0.01235427568189549 0.11884482324416598
994 0.08851991560345394 -0.19780839872544773 -0.05467969762526759
2492 -0.117882025845648 -0.092517406567736 0.1277600700294014
2469 -0.028315050118175086 0.007455318082149132 -0.06423292771620509
2408 -0.1593719123914957 0.008925887207214944 -0.050995265120387406
3035 0.07739739720842409 -0.028433106959139285 0.11852371093978592
3875 0.03929226699708955 -0.06553012073489803 -0.07609883044100164
1702 -0.14283451920532111 -0.04198064771083283 0.0811732843628892
5146 0.027980071115718833 -0.1608109004866706 0.09418255538322605
3876 0.07920306394486941 0.14793990926783263 0.09379981536207976
4867 0.08655057160406922 0.050484860641627806 0.09689080100338227
5951 -0.024378536939432836 0.02266287137162382 0.14960032096434073
5213 -0.03071458049843171 0.14353056171074316 0.006896107354232774
5915 -0.03428802195079875 -0.10924528785125567 0.07522600070679546
6224 -0.00789164184478696 -0.00559938615250039 -0.038543030509127794
1631 0.17811044322255626 0.1854890253578361 0.04364061616491895
1723 -0.07164277483759615 0.07227315251260674 0.05201508017854321
1001 -0.0005438086011078473 -0.09582158044207086 0.07975482162780316
3871 -0.060691928701296534 0.046082421428674705 0.06482886981432738
3203 -0.06898189428271678 0.11746308829563643 0.016964160438865467
5106 -0.07704768241313678 -0.02173171004371209 -0.17962939511948828
1505 0.12927286931921655 -0.00823642488123803 0.16488102904053664
843 -0.03076301829892035 -0.0043617274898596035 -0.035943298773930474
3834 0.0134552532540998 -0.03396149623806875 0.032711626922265445
4485 -0.07834057679508658 0.10852353381960843 -0.22507135742112025
5927 -0.02826748051975536 0.09239375203670924 0.024844487426734473
5284 0.0015610991703310165 0.058994901994832566 0.07285168541378204
6042 -0.04693262024615601 -0.21002428469561538 0.02448505386494368
5218 0.027814676864700943 0.03259974754217004 -0.07368428505935126
1777 -0.046117831331085074 -0.1462169541847425 -0.003884878654339841
3058 -0.049076818910757686 -0.03160118761354434 0.0901124557895733
1509 0.09964940314020168 0.0670382794123484 -0.014304519448791408
1078 0.054089374606079044 -0.024223666766418062 0.0871641400311766
1746 0.06772813329168856 -0.02656979886885499 -0.03860721007492106
3669 -0.10868483420343138 0.09317978844989695 -0.02712876184557048
5186 0.12132127418987755 -0.10377779792238702 0.0490352323929483
5645 0.07418524378265538 -0.10279331228208902 -0.05860386159292218
4869 -0.15169188237462514 0.05957764675892794 0.06730480735369376
6172 -0.016794488127867904 0.0357703759543089 0.0956636067814415
5826 -0.03904552277379014 0.0006143920409796971 -0.07831494649146388
1622 0.027152241803159213 0.20996402068831332 -0.009609704930061594
3025 0.005314007106585996 -0.15302423839044216 0.1631807847076207
5157 -0.06686141662055295 0.028287442382071076 0.01882434212227304
1016 -0.0792977211424718 0.012315724521468101 -0.08075174737841587
2227 -4.849826569398516e-05 -0.04325505107241688 -0.09822195399863005
3003 -0.051941241432225685 0.1467272940897838 0.0009163257087633579
2344 0.10533320559714557 -0.09609244947957121 0.17249965019965574
4158 -0.11578317143932586 0.1534456615194787 -0.020281428872945557
4237 -0.008824856830160531 -0.028981056110857648 -0.06680419730373167
4044 0.006310531479252063 0.12608667591187236 0.19666086282060907
3766 -0.08292786892449341 -0.0924547151120844 0.10230526991925266
5247 0.010072458259662407 -0.0679443724829801 -0.034457456696711325
5605 -0.014362400846130472 0.00036350165918886714 0.14888271819574792
6013 0.13124074207561087 0.025396588867332485 -0.06401557296595445
773 0.01622585523227302 0.021553129371549313 0.0691148083542818
5136 -0.15594638874344624 0.01761141059094517 -0.07942258941948459
1090 -0.1720003797925434 -0.21918350364462078 -0.11406412308241845
815 -0.04433161446232143 0.07429407241790562 0.09138835005306753
1559 -0.04142814762825475 0.03425764655404278 0.16982649348260698
5107 -0.12827645728861634 -0.033644079396982086 0.016450288206390714
2423 0.045199630693666226 -0.16576227743805544 -0.0017727233965354342
5713 -0.10128379879625843 0.1265098204191244 0.06498265506134934
3350 0.0819456883884811 -0.024021328740312223 0.04460470491029827
4949 0.10231396100550444 0.12760145789863508 -0.08067926535183192
3939 0.1616008283880588 -0.008459073143583275 0.019053058223484493
5467 0.06671538110298789 0.10629937304726653 -0.09492269183781774
6163 -0.048965964203751024 0.06171589532998425 0.046915577718111445
5998 0.03281752810473424 -0.10788372004043056 0.02617519775169238
5445 -0.013745070297978945 0.10474581024755437 -0.13559352083730353
938 -0.10747277781931971 -0.17742377715756488 0.04537362234162164
1003 -0.09233013381093685 0.012847856076503211 0.028595465527250084
1792 -0.04986403823362552 0.05595779755076385 -0.07687384923182981
1043 -0.05180739840829813 -0.085138134117938 0.060144038861768195
4544 -0.11518841040115263 -0.062550089804609 -0.03998542282433687
5090 -0.004593105174724298 0.015680859727502213 0.1200180034128758
1551 -0.029357761937651432 -0.06284680272735708 0.04624236294374008
785 -0.038376519580034206 -0.16022591590005167 0.0471407046947866
1624 -0.0958625228549023 0.022177607932205173 0.03462471572664666
3546 0.08114914669957454 0.053551117460171035 0.0050115113720552475
4959 0.00445684253093102 0.1386427427739861 -0.04764250561187238
6221 -0.17167403480394092 -0.040959897673127306 0.03206008761624515
937 -0.21826814572953507 -0.1250580101123256 -0.018194516248172914
5941 -0.11842005194217024 -0.039050237304919994 0.07225011122423224
5712 -0.057904101098507875 -0.08235072614021344 0.02301798798774427
826 -0.001818326465914873 -0.02771784516817713 0.005960456677046463
1716 -0.005370081307038738 0.044570187431929906 0.07271893402290837
2224 0.05172591519261826 -0.08094362154905536 0.15988914268641824
4811 0.10081387404177627 0.10184414991114184 -0.258764481676222
1799 -0.03975819612726474 -0.062399290122338684 0.062382715415026824
789 -0.03705295195038597 0.018670521990677792 0.140206652501603
1701 -0.03510647196347991 -0.043816440523581246 0.050065606101403703
1720 -0.014399296462378783 -0.00018327255696855976 -0.11600301716551793
775 -0.10595044160530181 0.1437644156975941 0.012332096920436039
1695 0.01919915785129757 -0.13305391803348499 -0.060558338979055285
5987 0.04420512870989684 0.15333426929086375 -0.0010490171170797883
3950 0.16307115002279224 -0.029092498621099545 0.04506627859302843
6250 -0.04554345415959293 0.08652893449263077 -0.06136713718255326
5304 0.12138015873244387 0.033078550255713164 0.02000765054218446
5016 -0.1421189240545115 0.01656621511003757 0.056103345227543344
999 0.01034974017097752 -0.09202511142159168 0.15651071750507115
953 0.019066050936009778 -0.07672579726488574 -0.05450024199147319
5078 -0.01906582102657004 0.028253491386881165 0.014601226158489352
1585 -0.03759470999996893 0.17200007726728045 -0.012268365575263403
1675 -0.011531714783896176 -0.02897436193944097 0.01815769209660596
1575 0.0514014499762007 -0.16147755563801755 -0.060785862345996075
970 0.09722128462460079 0.06767986984798759 0.036870115619038676
1813 0.16005424326224021 0.09814905122387156 0.009369380945266834
981 0.03995694173012543 0.02969989331709577 0.20772306974128474
4756 0.08284595542749273 -0.08107718444607664 0.1156859153712559
1692 -0.06128044404138805 0.06851558716779552 0.067778902260174
6105 0.08286650724933331 0.07992168317557738 0.0007358105533118893
5592 0.03132946360791078 0.07077595179777955 -0.08434348771113996
5424 0.08906877657432626 0.10222155789522452 0.08478189250350938
6236 -0.028217489868437313 0.07747751212146588 -0.020470363865393054
5104 0.1031604540739524 0.10812176370932416 0.1544756602737059
1741 0.06988340333962001 -0.014457305381188657 0.010303502040960241
863 -0.023776969004192725 -0.06704452893870866 0.0008475915743143998
1536 0.06313957110945614 0.08326440040000083 0.0819301798562227
5050 -0.09847261704996713 -0.03274016873771464 0.03821439532359071
5075 0.11533446802048576 0.13064875064018802 0.0038720781449013714
947 -0.13991742410905206 0.1004855961342824 0.051269120045336666
5631 0.06546140430274447 0.17358572819900495 -0.00027127107762572183
3654 0.05398666235843599 0.04751622792143889 -0.0625404289324329
1004 0.0008156872404618178 0.08081585132655822 -0.0892412285553918
5024 0.10076360253384632 0.2597110768656419 0.06931881594973907
4683 -0.12871779563321628 0.018217388081684882 0.10995916817445009
5619 0.09764906827724411 0.11651460967270288 -0.1080578268618576
5400 0.12393753457542629 0.055109558797581004 -0.09722264831831991
1683 0.06965850862283801 0.0420064793083364 -0.17394131745203126
1789 -0.11658352259768723 0.09236336862935758 0.016305669118965173
825 0.012691896756947684 0.09702833487883664 -0.052398026364962734
1503 -0.15643370136184945 0.0651046464293624 -0.0376738986898676
1635 -0.13831092673945178 0.08225687001414494 -0.15876256890780224
985 0.03362022333884445 0.0434777359821501 -0.026330241531750093
5100 -0.1083418720227428 -0.12555450998919773 -0.020363315608560115
1015 -0.040503131146057345 0.0016080091016747167 0.03043128925053214
4292 -0.06201325480453319 -0.12062514986228448 -0.05392391324858724
3548 0.0515869080865939 -0.09280623654742226 0.016038263441458145
4099 -0.053825669150208436 0.0002531965104451382 -0.012125177348852788
4602 0.020378645865065048 -0.044648682180559444 -0.15954699789208143
5928 0.03375872039849204 -0.03384822361952733 0.09415533172005795
6243 0.025255678053442532 -0.003170041561361864 0.004347503656180807
800 -0.005586695331708698 0.07346390400642647 -0.09428800738437879
1778 -0.04195224718361057 0.11636523415315492 0.014454220092405042
829 -0.14539156029863226 -0.11651802964112785 -0.2063356289028412
3943 -0.036848271510864845 0.0802824651884307 0.04540436647476631
3849 -0.04558683529940153 0.1449023013262443 0.0068980451144551105
4519 0.013192799590490668 -0.16094301017383977 0.04391094320417097
3345 0.10758050506079289 0.028746406713383944 -0.00016924587987235049
5149 0.08848341925579803 0.009525044247129882 -0.1929959631604495
4660 0.03141824834011531 0.051537231815357624 -0.11987038773005773
6193 -0.14253804453968794 -0.03632561768156553 0.11911378498588651
5328 -0.017644966500229703 0.1476091326681273 0.1104187995178234
1694 0.04516247514881558 -0.037214871144989954 -0.08408108902215546
1685 0.07982638745899054 0.017995631624113023 -0.0037379959778921466
4387 -0.07033503435809024 0.07850886089658898 0.10878718432894066
1646 -0.07812511200624728 0.058466969946320786 -0.011226425731567784
1056 0.10859272048155212 0.25846392557337755 -0.06172893600303201
803 -0.0043420254337737715 -0.1608147760477178 0.0006645516599592307
4413 0.06917716848549514 -0.10990274243098036 0.08480934196923315
5103 -0.03248145449773958 -0.01875436767821886 -0.10991980621588016
1501 -0.09041904081218625 0.007450424737915233 0.040803133638481565
5307 0.058246411257143374 -0.09331890981487019 -0.0349583467587681
5621 0.17919449589346526 0.1554326990934773 0.04523507480017891
5984 -0.2776680121385793 0.048280161257310876 0.02844327116266748
1588 -0.03920143030620279 -0.1341788539059642 0.007613293151964462
796 -0.23061542853546071 0.06625893890742784 0.006898614824547421
783 0.010114663025865623 0.010226130468028838 0.0027222975596250514
1574 -0.025442973042880526 0.05435311743938599 0.0231936089033729
753 0.15155306026112447 0.06335985341089749 -0.3367346251533504
963 0.11513188676811063 -0.006433238004625954 0.057367523851547225
1796 0.008885987160593765 -0.05651550423485815 0.03588841037831404
5726 0.10999152260142468 -0.0008577640788492225 -0.10894304088424762
1557 0.05689378949094034 -0.062193925741246554 -0.06946724758553263
6157 -0.21893063510819494 0.02202228372242505 0.04773940144419351
6175 0.10626277923948314 0.05855575616795907 -0.09716680292327971
5958 -0.00220960794421653 -0.00046234887165442747 0.022164298808555763
5059 -0.02343409701174345 0.10301376864283464 -0.09619387431017684
6164 -0.0036527598632836557 -0.09521793891563474 0.03271489855903789
5154 0.027413291029805904 -0.1727191650956644 -0.03321304841520977
756 0.02919529407421812 0.03536483631225956 -0.046253776811852554
4588 0.017911803874274445 -0.045146103321961346 -0.0807474709360746
820 0.10987919424080465 0.051822847348133375 -0.012381870172992079
1597 0.06120199016480016 -0.08264171134461742 0.024473677896632427
5178 -0.03658222969199904 -0.021848117525644497 0.03709199315037482
977 -0.005975760133370034 -0.0005910975148419075 -0.09154161940457313
5314 -0.06517969590641123 -0.15471456318534133 -0.01054955387350854
986 0.10917055268904574 0.09473484277281591 -0.16706217654384753
1733 -0.1459572370995477 -0.017211743089542465 -0.11216139944504572
1814 -0.053474405805761224 -0.0407686089490578 -0.059807723349048825
5622 0.003158576096610669 0.12228380253119281 0.07229539980855695
6198 -0.04647070996139059 -0.040779481074017215 0.02824196021739589
4781 0.052895773579292954 0.029227192696263407 0.020454800614356138
1067 -0.010177615250828836 0.0540980963205218 -0.14308798473625192
1605 -0.017472880758247298 -0.056658046068148955 0.03433598673006304
1815 0.04636126425048502 0.09006542174686721 -0.09164653772661534
1628 0.03800535286611106 -0.06137344496631084 0.09842906550026594
1024 0.06600722976392132 0.07468518691285653 -0.04810521432904839
5375 0.13174109620042032 -0.022216854345129104 -0.034425689637631984
5082 0.027288182529568494 -0.04332062018160772 -0.005085075147522857
1545 -0.12770986794271286 -0.24427902351139363 -0.05554169929313141
974 -0.08347821186761128 -0.14103103278119566 -0.04483437575445885
1010 -0.0349045926758136 0.004263107542223264 -0.12420738995649547
5999 -0.11774705645186496 0.023673831056941878 -0.04501629360133232
4104 -0.04131404217538699 -0.045726445004328584 0.02458799051253753
4419 -0.139273391523538 -0.03293058449651766 0.11260580171298368
3750 0.03676093154333833 0.0053119657945069785 -0.07950103303290423
4932 0.0026575144104082887 0.015958885975479203 -0.06337818639202819
1469 0.013026171667932759 -0.06658625091693524 0.03239885976510203
1483 0.043416006711809584 0.0657634679388234 0.054183057940628
5396 0.08058042475181082 -0.0014985608222934862 -0.05511457267425121
4416 -0.06634555427963032 -0.022084992581973266 0.08208783569099772
5083 0.04203438507642191 0.08006270411454777 0.06509730101819446
5096 -0.009448690624661152 0.11749348084441145 0.02154958845737541
4929 -0.019312239049941875 0.07636378524732085 0.035059956766031616
5188 -0.007642440753797646 -0.0019409752149493562 -0.016703109674805178
4122 -0.10267780671914754 0.04908705057539299 0.03473735444750787
5360 -0.007537757292055632 0.17465386035810776 -0.02868665532382344
3494 -0.016031108004643597 -0.1660336270488856 0.06007010193107753
4222 0.07741736666043271 0.140385983623331 0.1375333942624833
5957 0.04221981368378756 0.09979300173465867 -0.1345020360569009
6005 -0.0722071963530368 0.09117381510762801 0.07697624688808476
998 -0.03415352316653285 -0.006705872368646171 0.024555285226371196
4343 0.15093980943296018 0.14533069997846934 -0.10813429138121212
1794 -0.08155843847689286 0.10032043667529893 -0.08964353378942393
5401 0.006797850296656801 -0.07150274605993634 0.0027427004693040546
1577 0.03078750056411847 0.10417882485763583 0.05978244895150008
1586 -0.11542708255186426 0.001082998174553723 -0.027156780001346
5233 0.018189134956996783 -0.02544574047869782 0.010753464423585716
5295 0.031338975293922655 -0.03296094268208226 0.13185950728134213
4446 0.019932040800593572 -0.01282162513499809 -0.11772864539094435
5455 -0.03847306182157682 0.003537541573195515 0.012055702831276757
6012 0.06324625577522039 -0.07858339360996325 0.0186172629658081
5962 0.03892391338376859 0.04084176208764682 -0.08248353482723753
771 0.06206284163144132 0.07232761137457136 -0.005626771962564555
5986 0.17708186711362583 -0.020491101634202556 -0.1121711394076438
841 -0.05842930618021815 0.061418705356816886 -0.0712713988475504
895 0.11784180703816308 -0.0204476290195342 0.10201032033012529
1565 0.01917165150260946 0.012597786245673112 0.1669924472888706
1600 -0.017567032701878385 -0.041786260141374966 0.002342308162937474
6039 -0.09636402215781056 0.05886892884066694 -0.06413295495043098
955 0.020747987661514544 -0.1485988464958271 0.02398219120353045
1089 -0.026607161876856557 -0.11837863263920696 -0.06837132301085722
4935 0.007741458446404333 -0.031034026093241646 -0.10128167575340419
5686 -0.006240189006711371 -0.008105130764080785 0.0022760624930721583
1665 0.0980775168970375 -0.143267490537378 -0.07667929928671399
5306 0.23368861696972934 -0.018689523767060012 -0.049583526506659585
941 -0.01988660410442633 -0.11682119696355381 -0.06667121699954488
3401 -0.04548099397070724 0.01720039467726245 0.11178570427641756
5177 0.10401035958663916 -0.03353435541365301 0.06700752834018651
3867 0.0931376380897941 0.13357779993388286 0.0636787848382989
6043 -0.05272063937549202 -0.14518664626959463 -0.08428243058003791
1502 0.06804581072711056 -0.09941408875159138 -0.03966180076720558
1611 0.12881884514011036 -0.07770997743467065 -0.11904276543596158
1648 0.12617549783109316 0.02869681365118151 -0.033894039382690214
1093 0.024322709417505917 0.06386375092343215 -0.04264787247568501
5011 0.1427293159836303 -0.01150245345145777 -0.17135025365857437
1658 -0.10769700189509279 0.09790877479233837 -0.016288977698470007
5097 0.0002208177420160648 0.09510915061158064 0.10755254116559879
1659 -0.06254403216138146 0.05472407696994025 -0.04958563077326819
5635 -0.0574893134709183 0.17589884421628163 0.053543657911359996
5069 -0.014335772637213456 -0.03797635035814101 -0.0049306487063104625
6205 -0.05934612871467121 -0.14146744657728846 0.025674505860855835
6131 0.01786482462233966 0.028940710025281702 0.1555911580477522
5985 0.08958310491527055 -0.06731752250361579 -0.09095243630404105
6139 0.05192310050050412 0.08496233686446515 0.03492408567305346
6239 0.04215263922226939 0.14566441135857233 0.07060803932371298
918 -0.0850186618966907 0.054869059114352206 0.004745820019674569
1474 0.0394368523772267 -0.06302348187360231 -0.04183243591837687
1584 0.017783487857543242 -0.08966924490377452 -0.11508008031120101
1747 0.09660116667719953 -0.04495476320354595 0.0912552169745379
5239 -0.20337219377540025 0.21159977578847763 0.031054117170145674
880 0.03428723967514463 0.04029144364960875 0.21887090043812946
3499 -0.0732281088230351 0.07742506792860447 -0.07512954279769647
1065 -0.010988431133355736 0.07211494436577286 -0.0368038664413816
1620 -0.033609935050224554 -0.02404286956683639 -0.0546262174441763
5248 0.07843990491181044 0.051953228389449366 0.11710668274851943
5053 -0.10840894319116388 0.10378900622611917 -0.04200437202750452
3777 -0.19962094310607556 0.027237156676213563 0.10828650231540622
6006 -0.12320375247883311 0.05469020550661767 -0.0396163629739312
4659 -0.05343369347282965 0.04604139653728377 0.048601252563087304
5270 -0.2624664685105953 0.13911550977130452 0.03250717002027931
6251 -0.05789876808129766 -0.21278331918315183 -0.10025652199098692
3135 -0.01149127019604589 -0.09889043178406146 0.06322672272490196
1081 -0.046825405629874285 0.003186061414064873 0.20026600303805397
768 0.0010908226225776162 -0.01128139151510882 -0.0513360556556715
2377 0.13380448216726726 -0.0028569752915583724 0.09777305417151823
2397 -0.003505090526847606 -0.07736848093702256 0.10778097396544964
4989 -0.09988614631308715 0.13036416223007988 0.06953111005507068
2468 -0.10588453964405466 -0.13467840609979906 0.14325488629275374
4724 -0.018198121547676943 0.012973858315043748 -0.042671558144167114
1489 -0.09720790231925429 -0.012210797969615383 0.04681459957182742
3971 -0.10395567928020603 0.07795340818957366 0.03439380576922237
4974 0.04200190182844185 -0.0021939191665366585 -0.05013407462363642
3780 -0.1198917885381045 0.12466983188398052 -0.018669276667350205
5543 -0.05210457717209023 0.08658521776629306 0.016051620753691178
5816 -0.15455756514228766 0.006826486807259165 -0.04663474383724355
5337 -0.023181331158693873 -0.029731030636273487 -0.038866775449127935
1517 0.19713853333087075 -0.153823821229256 -0.04226537044671541
746 -0.00995266940515727 -0.03274163166203518 0.07928535962053329
5134 -0.09375212739242972 0.03076620411418973 0.026292019547879325
2284 -0.00028134588593334287 0.08082583786612481 -0.03446839511105397
936 -0.04554064561085077 -0.004403860148468155 -0.03698441967552006
4952 -0.06587160506580048 -0.1076878797179031 -0.09801192174039577
3396 0.04012665679306903 0.205966149098528 0.017817799807839794
1018 0.01549068582639574 0.10911782194325352 0.0597038991286379
6014 -0.028648349801828177 0.11003262881058044 -0.024314644408199217
856 -0.06642893625980817 0.04579104677219392 -0.05001911307218769
3534 0.13025434324198026 -0.052587022925674534 -0.0292944603475011
6026 -0.21114042775320452 0.05984388500338035 -0.04708808565085968
6119 0.25551386765334777 0.06850193968921775 -0.020588717131276975
5961 -0.08840548754680294 0.02747556633388024 -0.028014883282321195
5637 0.1575541332954522 0.09351514159273583 0.03319333412199282
896 -0.0017276204796894193 -0.051598236994962215 0.12552661862964068
745 0.06482506535875068 -0.10407192605633198 0.032508131539209645
852 -0.16012002225028368 -0.0649493975295239 0.06530275971030917
935 0.03755254671491605 -0.21745845455823637 0.02050001021869457
813 -0.09796078148885637 0.06388332633181469 0.09294083430729963
1670 -0.13878477987072305 -0.14360230918094627 -0.062329365730217606
1579 -0.08960505233106385 -0.08004965175870904 0.1300651405848333
3398 -0.006276362906249387 -0.042928875942320116 0.07143582379911936
3389 0.09763282867917368 -0.07632784372835671 0.015015248655463123
4096 0.08340825332165418 -0.12578070338864297 0.05632661313542564
5282 -0.0010808133094663839 -0.12779155661677855 -0.1438635257369914
6204 -0.011567173477542745 -0.07231655027866482 0.022975169459512636
5990 0.14043409994877432 -0.14581171077760147 -0.10209266756903147
5269 -0.10290341831365685 0.05477381197835675 -0.034406604327537636
2383 -0.14746460176816867 -0.022547449099434173 -0.023248678864578372
1610 -0.06979798832110261 -0.13902307503735578 0.010650755063253706
1496 -0.10039269494992713 0.18549430097789554 -0.0330281230379343
748 -0.07977006893634718 -0.1524435248780897 -0.1244132595916239
1498 0.25623881367548373 -0.07130815336191802 0.06759041037472271
779 0.1317058169033224 -0.017653235492563472 0.029023298182430837
2427 0.019264858980718155 -0.135032495094686 0.07954982904640444
3373 0.07957318789610873 0.0041691932432841965 -0.008127306071717272
4518 0.0812452464947153 0.04705633171321241 -0.08204684782863375
5084 -0.11038863160491935 -0.03200768040014175 -0.032552270083244156
6184 0.06790658636280138 0.09042003008860085 0.15455388798699754
6186 0.09453922018784133 -0.030517248918170106 0.0006428902490836046
940 0.04787073531022005 -0.0987102089064627 0.015131910424871992
824 -0.12278275544040614 -0.03196817942437684 -0.07213769180845099
1552 -0.2773519253032272 -0.06333773517641966 -0.08565797906587615
1776 0.07749158860040749 0.08204118226091038 -0.10410287352004417
3210 0.18953627711299917 -0.13627478380651786 0.11948269827280844
1079 -0.04927896868742398 -0.003972126888162406 0.17685210891062023
1532 -0.010390597990292239 -0.07074551625632533 -0.09962762316819204
1589 -0.04814587066051737 0.030955042565767636 0.04463218439566147
5266 -0.048502201451041255 0.03184204787195766 0.08149354035660308
1069 0.14465648005334142 0.04640751278123908 0.0157426034141325
819 -0.04483261997803231 -0.031165898755008324 0.11075753663758611
3102 -0.12435645240972187 -0.06710278050118446 0.16644239531922247
5367 -0.11138965523950926 0.05309654952498108 -0.03246088904419513
4242 -0.020122089981632122 -0.061134868970061304 -0.06835915259566912
3866 -0.008725062042322571 0.10789814876242339 -0.16370888282904827
4805 -0.07431067116794753 -0.01655306267900171 0.18307943443613955
6047 -0.20275055888862964 0.0030996655096799334 0.02843475411644811
2995 0.030262029259712664 -0.1106716485615818 0.03661847279256336
2279 0.07567407645243547 0.2297756136078435 0.09500238370647222
2954 -0.10560431263929149 0.17029012946745248 0.05855655493279655
4243 -0.0890849681959659 -0.06652030775277586 -0.06818683608534508
3148 -0.09661654975850395 0.09701513599460762 -0.008514240673665173
4691 -0.04029257625388404 -0.06063531141724307 -0.009452376988893119
2353 -0.040145160218031134 -0.14474875684881544 -0.07472729738560573
2280 -0.0979797611780753 -0.04032769521526059 0.019997391383027346
5359 0.01997348578410263 -0.024458137221949183 0.023688762085463964
4230 0.12204815312864205 -0.17585139839171823 -0.011652726701833906
6132 -0.11772517888783407 0.07142136990370329 0.07138910595888949
6102 -0.08284799396965004 0.07379795853774046 0.08196321336356106
4798 0.0372919171364691 -0.10688967042282996 0.11783875108771345
821 0.07988847545543988 -0.08611379905804563 -0.023586076506553724
1735 -0.06677194576280959 -0.1501531053227864 0.04702145456390812
2270 -0.006768869652709977 0.023244642747058307 -0.11134281002646074
3649 0.017494858942837904 -0.030930692506651595 0.2014892104012624
5477 0.033599534169845895 0.04170075147457367 -0.11712274685683195
967 -0.07790626335940337 0.16491029923786518 -0.158999305514475
5620 -0.0974231172951944 -0.05376871485988532 0.14716467718879556
5193 0.10232330986571075 0.172350917537602 -0.13686504864870905
5458 -0.13933713470529394 0.0293099491544045 0.09441257709037823
6156 -0.009103307276387754 -0.08240052653016794 0.06479608104050072
834 -0.030321044001779356 -0.13925950099323384 -0.08517762539917896
2525 -0.06204110886005333 -0.09174454347582713 0.08443093513702295
1744 -0.04188839041137006 0.08422411987177852 0.0947121093616005
3145 -0.010746840551252277 -0.07004882809247955 -0.0013117291303632855
4934 -0.05067210229678528 0.03095247306280683 0.04358977311149688
2205 -0.028756885230886455 0.009492012899996037 -0.005992032709970594
2452 0.03910803824936651 -0.04089434116303463 0.11046531568928236
5175 0.11068511852438971 0.03620231028475634 -0.0074916610400795666
3847 -0.1258759356532829 -0.05584158583473711 0.11063459396129446
4966 -0.02362626747869821 -0.09868075058982716 -0.10848722339559583
3961 0.0982101065126543 -0.08061766163262554 -0.03783462928505322
3864 -0.03473287876138578 0.07842644021258068 0.08973524801889368
6240 -0.023425261372721908 0.057471866969657004 0.1150637606758683
5582 0.06759846689410788 0.05722686982760196 0.025059237991747876
6189 0.005228297312629221 0.12985574880654152 0.03706461541039102
6136 0.17344214768815805 0.044610475416022775 0.020534363571930947
1655 -0.1338561155858855 0.02100226147935924 -0.042747517014426736
2914 0.08874371795071635 -0.0034890656757786713 -0.10929706509323044
3005 -0.16063245628489325 0.17479683566476906 0.18781898724746815
2759 -0.00951008879675133 -0.1588587586564896 -0.023114912950713162
2286 0.04504968272112938 0.03153866001974444 0.05139688720560753
4718 -0.02927366893626696 -0.10590933445437711 -0.07218054698477762
3167 -0.14165360156385573 0.019701773792999713 -0.08549541450098375
1544 -0.04418750885852432 0.15078200529997146 0.04767172359779143
3237 0.0601130424995065 0.05627582855786438 -0.11942873956840691
5031 -0.1778840894777723 0.10461920309338069 0.04840316393591193
2303 0.14019922247826272 -0.08280480305089079 0.04514062644359834
4481 -0.08543766539945387 0.034137124812712985 0.20299100431762473
5884 0.1091798335543798 0.08313328772172593 0.17294238929186406
4488 0.10739125323717708 0.09393106975881657 -0.07201721495919901
6020 0.025561942114117893 -0.026484797816149708 0.10519454858767018
5289 0.009695403977032726 0.15315101986181284 -0.017180090917667173
2628 -0.07807249917456532 -0.21436325088840902 0.07571266324166423
155 0.0541774381123715 -0.05437286691893936 0.06303924536590222
1811 -0.022429780808319075 0.06766934293594355 0.10686500074753115
2955 0.09895383920510387 0.030735059584607066 -0.13732044269222807
153 0.112944365070054 -0.04130480077531681 -0.020850789831613228
5163 -0.05893049713592583 -0.08744433618426445 -0.11726112494926859
4856 0.07954190360002966 -0.04794989467482768 -0.05334303696813247
1805 -0.029568640380504115 -0.1161167569180492 -0.07755556985066625
4508 0.0016962724532131185 -0.030659260449286616 0.03447461878949891
4298 0.01762018702144387 -0.03603079087172882 -0.03124679753645449
4631 0.03386567404989341 0.19255747161817782 -0.008874701574055774
5508 0.05703231898672601 0.03567775897021313 0.1366929993356697
6211 0.0051399903846647225 -0.06327663440344022 -0.05976389961629137
6199 -0.0854434639650989 0.007509314973540287 0.016740891050194648
2401 0.13714292830837446 -0.16251418343449928 0.003304126681824634
5358 -0.018073574354066577 0.11160259975710185 -0.033139930255097094
3111 -0.021552543037378864 0.08882534093479952 -0.059728946886998445
3130 -0.039710557489290886 0.133231574639699 0.17685390615007263
2485 0.04482504636450445 0.0779310841820221 -0.15851638404253038
3021 0.06856838458624445 0.016443181068408756 -0.033562133576071226
4651 -0.04993860855250288 0.04957884565831963 0.07393664343599682
5719 -0.022153217263617343 -0.08879065379924117 -0.0011300912188804586
5639 -0.014220392369585121 -0.003102949750003534 -0.07002152385735572
5786 0.11344713727852675 0.03493699808141697 -0.11401494598773668
6002 0.04629981244168058 0.11080142517438119 0.022451136680842518
5881 0.06185339603181373 -0.03978887851579663 -0.054328665519920556
6253 0.06366599884937216 0.06852117737569641 -0.1347313427354694
3074 0.05198034590928499 0.0969837766907469 0.04923319232613069
2948 -0.12413433592414876 0.008167151019130015 0.003308531217287643
3194 0.03954422597032543 0.0003231293776821756 -0.002827422060068533
2493 0.024408109363934442 0.14763607555538688 0.03613483160596912
5342 -0.0799999018442842 -0.09122417844582864 -0.04072440210558903
5752 0.0013973626542899214 0.08289332075678797 0.17272263482430675
1717 0.0513103368192474 0.03417316767931028 0.02202201380447847
3369 0.010632202774247854 -0.139626659489292 -0.058286734454544735
5353 0.020719370137334624 0.04234026516679932 -0.05405021961813987
5377 0.026266027389726374 -0.03443167490426209 -0.13130388504106494
5652 0.025860877408763666 0.04907286736712349 0.12373535135812397
6000 -0.1311804255126639 0.0878332662768981 0.15574069283723346
5968 0.0005647306622360085 -0.04984124266213539 0.04232655492178727
3188 -0.0629896087693072 0.07253691733681504 -0.04854073720540286
2232 0.07079609925134125 -0.10635573245936718 0.025248352122579715
3249 0.08527431095217759 0.01944304724820487 -0.18452386442712737
4231 0.05241877784850725 -0.10806190881193778 0.08197060403914132
5795 -0.07442287206757822 0.07336700865414943 -0.17443894203008947
2405 -0.09075639383476661 0.21875521541452259 -0.010214846798430521
2360 -0.14443022623391658 0.12354346574259936 0.013916849952792536
4052 -0.047929039685161726 0.013003558639357753 -0.01970114376713861
5229 -0.10543185308746403 -0.0032247983605483126 0.03127976605966657
4450 0.04089882382570034 -0.15792007994870635 -0.06718724709804803
5746 -0.07307833907240284 -0.06361409049304215 0.20292163158751084
5441 0.22675906162121975 0.0955102328390621 -0.08447265178598214
4985 0.07847929932199313 0.0843507539832658 -0.024969964851008324
3116 -0.040517359757001915 0.015150330606787287 -0.1301928566318475
2721 0.1248747227780043 0.09331456787308018 0.06713890145351065
2454 -0.04470284152595051 -0.008347376968002328 -0.09113687417129221
2419 0.08282158693914245 0.06217081958299212 -0.045373188004469
2195 -0.2206276063379187 -0.02061366458959598 -0.05318451529868077
2457 -0.19376916522575535 0.0800092864434029 -0.15959318057910563
5636 0.07303587561270956 -0.07080663216399352 0.03320479842825382
5678 0.04464142431064778 -0.05462783081878089 -0.0147069172281418
4277 -0.0442698515515932 0.061522860116995995 0.07281886143162287
4636 -0.044416761099171906 -0.000364513591624282 -0.06338142575287846
6252 0.008434104521252773 0.11554227353070681 0.06601857749600644
2327 -0.05615464648721472 0.050376878920024654 -0.036727958947003106
2925 -0.027413296604262002 0.11013792968200453 -0.1193743807974541
3217 -0.07358183959879515 -0.02039600430928691 -0.017717278130670217
3042 0.10103663721585779 0.19913596459953317 -0.06769130244210232
2340 0.06395374705646666 -0.1170134343080981 -0.0967840372364707
2290 0.053695959895749865 0.006348499912850584 0.0026804076586220077
3118 0.06882791208711757 -0.008400918423358326 -0.034594886641126976
3171 0.06963514090058709 0.015380630072397776 0.011704709755853023
1088 -0.11124057028566893 0.02671282930271772 0.044069485151648345
3661 0.01615349497472843 0.12155032729437726 -0.015055417466809553
2305 0.04001445371454754 0.1468834179695091 0.08961111671146718
3018 -0.00460975527934559 0.13279815073891604 -0.20106751297627723
4487 0.029617287562809597 -0.05121027233962494 0.04218633788212407
5148 -0.031128261642910875 0.005267923496252727 -0.15535560194007494
5910 0.010878924735150477 0.06907244402304617 -0.10282849039578819
3501 -0.00626624956316995 0.16063588338673357 -0.12388794765692794
2314 0.022846569952188735 0.06701017451615453 -0.06510263675127126
2308 0.056736102580124605 0.1664985868001273 0.08332629336956493
3234 0.0385556146148504 -0.05102420836401057 0.14842180858789042
2467 -0.09340458804461939 0.1317722514388298 -0.0917505091642999
2389 0.007990296438761004 -0.023714911372920425 -0.015161042297378895
2319 0.03884579109119923 0.1190007871292504 0.25726358833811697
3537 0.09272373331462104 0.1651158362085594 -0.09734252845198699
3958 0.20238612399290468 -0.019504255567757575 -0.14869204699507643
2526 -0.09279299024869006 -0.06795133083723023 0.15417783965121595
4928 -0.041023265474277454 0.003117046575616931 0.08048169723225362
5604 -0.0019231495489649246 0.06078103373391721 -0.12696842944960596
6217 -0.026031707623224685 -0.024432744058461648 0.07468824551658046
3060 -0.04078210817190336 0.07331010733632717 -0.03621511934183169
5184 -0.04681812800478217 0.07807143050999386 0.09816500323651582
5099 -0.22417261817095555 -0.029976255576778906 -0.04016645864736132
2463 0.0830379499659495 -0.08626669971098447 0.027611271020483996
3020 -0.07794736006227504 -0.029896978201390888 0.1083000313038719
4093 0.06916933031267491 0.03297270646605911 -0.17518026807449333
2549 0.06005767379624063 0.0786194400778649 0.1567639589194107
5778 -0.02220121836064715 -0.019290607976837865 0.08897892838941307
2928 0.00399655495867999 0.11160191547038896 0.15135232976333673
5785 0.018229312611118178 -0.031576302813009056 0.0042524549059447265
3406 0.016963058915064513 0.09151592372051912 -0.018556641589508614
5942 0.12775122093829655 0.09156622617945777 0.03854317340981632
6245 -0.010678059254468642 -0.07621055571132368 0.11590322615920143
1634 -0.02600613455610068 -0.08453707620760531 0.010816995881994331
2520 0.10523523132058883 -0.0435288813640021 -0.005233230861197424
5043 -0.0512956642730077 0.07218905371498938 0.0874748931506332
5494 0.08946391061232922 -0.11848794662047125 0.16577384793771566
2996 0.17040711660480948 -0.1815391907095341 -0.08953619814673244
3774 -0.15976278460758886 -0.028472669634786077 -0.15451102048130386
3960 -0.09527467415507851 -0.0683827364317085 0.07378685222186793
2438 0.031066479152862918 0.1436068568146043 -0.08405272201624532
2950 0.01438134755746838 -0.02821800406988891 0.009316098224625393
3651 -0.04334462263279448 0.1839676691241888 0.060451849579333646
2528 -0.12025546637071417 -0.04037406393356148 -0.009346923145693221
5664 0.027453520606279792 0.21290536770955262 -0.059688944355314945
5497 -0.08954814059241843 -0.02604610338515074 0.19321158209825307
2296 -0.016361197573287953 0.20932883930237117 -0.06992305897879082
5160 0.020004939211242932 -0.011019054503350726 -0.1760174246710275
3181 -0.0569111932861721 0.09512552956006473 0.17720613621693035
3065 0.02458866096130978 0.09417565011921127 0.09695405114932534
3017 0.04110407649974865 0.004685707412612164 0.0158305408393111
5407 -0.02950513310294909 -0.048179925452009345 0.10442390148263828
2442 -0.005766091843383878 -0.05946561488697104 -0.1453310715795164
3737 0.15469482033431156 0.051178549810077884 -0.031073179606796515
3532 0.021009702897344412 -0.14069501786780722 0.18992949601466796
2328 0.0789683022063071 -0.12868130111616932 0.07753639670991369
5145 0.022533522242149884 0.010049648792920805 0.28979862185479216
5105 0.06571494411510335 -0.0768433180650176 0.19005077390343203
5953 0.10111594967261131 0.06126487280457268 -0.08667433214642883
5798 0.01898474210909195 -0.0788250221968083 -0.08697002972460674
5352 0.054155676691172744 -0.0011876900041890718 -0.017795507426114562
3218 0.024118530721994803 0.037695476230434476 -0.0523494460665406
6138 0.11076506476405955 0.10356840066280375 -0.010249100684676077
2292 0.07503313251588999 -0.09711386371099559 -0.06735056558928786
3037 0.027570156116555125 0.0986322999490214 -0.1038698096680506
3085 -0.011346384316442751 0.08049857636322479 -0.0048470402694604925
2275 0.15601166758792157 0.03210947616372974 -0.05780147894318609
3177 -0.04620399924295675 0.1140878382845037 -0.17632825185567969
2426 0.09491895434264222 0.09803672270717634 0.08401297981708186
3377 -0.03687957199302458 -0.09374439012157547 0.06422498926228894
2959 0.06559604342138572 0.06933547042394556 -0.023853485113516967
3859 -0.1469015087184765 -0.038520642769417746 0.1141677334439504
5765 -0.005872052756868822 0.04036951893268301 -0.1481169952187185
6162 -0.15502443925373904 -0.05089278490106078 -0.10927568717259672
2976 0.10255289277566393 -0.04459962963293565 -0.022551437578785326
5781 -0.0701059637026602 -0.2094293613664458 0.1477819308941919
2349 -0.08032923509553688 -0.01415977925015131 -0.09498530710793297
2949 -0.09208940041579602 0.0006776359454543817 0.0486150766728834
2477 0.007946860337985293 -0.09204518528108431 0.1292527718666515
4944 -0.04047983980724029 0.025425476066645896 -0.026165240010890007
2460 0.10431106903552637 -0.0832009817893165 0.07319268727732228
4559 0.015095479892822925 -0.1096255179079747 0.0231279130016602
4239 -0.005126855669451518 0.10474379908173738 0.0887468006339445
4037 0.08008592105847923 0.057962129452718565 0.043719174066471814
5479 -0.008956879217213838 -5.757938363239873e-05 0.0014748418649454921
4647 -0.13393315881045398 0.020713335739431488 -0.15159101690671128
4725 -0.013904121753358548 -0.12505220686587887 0.017704974671896915
5153 0.0946751483945539 0.07178783125778992 -0.03967609004802511
5529 -0.05119006999459087 0.1857513656548689 -0.05604027164694404
6201 0.04585251816690966 0.0987132527700136 0.09523812211574137
5568 -0.07642702300205942 -0.015446696658973968 0.1956005383399172
2424 0.11969580492522931 -0.10807589825887134 -0.03599488587147114
2350 0.13149476276878044 -0.028864451982660515 0.014957157397591285
2970 -0.035425139111233156 0.11466242278227073 -0.01484085061872955
5183 0.05714642613441246 -0.055200787909450086 -0.011836400504814867
2256 0.037840124910012485 0.14293292520256287 -0.02098496196158356
2509 -0.04544997880142493 -0.098043120193081 0.06762435665289088
3341 -0.026850538592442866 0.06766737593383544 -0.06295914158778745
4671 0.12266297701707866 0.0211666794896542 0.009868066785583818
6092 -0.11511809436698055 0.020490091893381385 -0.12221189205543527
3624 -0.036107807418485904 -0.10474722673489113 0.11069260761472892
6056 -0.0007191957162917886 -0.010741523611093356 -0.1611324483262441
6133 -0.006799866928997169 0.02199852059372669 -0.05846722852532736
6244 0.05435664792191756 -0.14187462776403567 0.07834525936686915
2530 0.11704134738532479 -0.025536219624265583 -0.007385684332507625
3019 -0.026256000582596667 0.06694527157383273 -0.002468533865930778
2321 -0.0035879209209608784 0.07646305999501729 -0.05172045754788872
2929 0.04349859473733231 -0.00882450268311881 -0.029771155646647663
4582 0.10685783614465028 0.06342754486248195 -0.03801139361029686
3023 -0.04162280724657082 0.07483448224312828 0.11010741954064024
4541 0.031653431065114986 0.0830867526940101 0.053977791108670674
2331 0.11719424765558804 0.10861454858206958 0.031499760290113143
2218 -0.0038236557981855567 -0.04349355161878192 -0.0916797963627266
2464 -0.011995968766137855 0.08349370307429439 -0.058849394466283476
2236 0.02377025349820349 -0.05582589216395206 0.14897756446658036
5524 -0.08957700343300373 0.03512115272232631 0.12308868989444056
6045 -0.11521512905006726 0.04721025085574862 -0.11417608165473736
5794 -0.0683991730386899 0.008025488463012877 0.021397171258771518
3741 0.15432513705853362 -0.09853149525905747 0.03768909544837488
3032 -0.09399594176235024 0.11728182911989057 0.13244348306914674
5132 0.056502080538669626 -0.03958863761078488 -0.08431250880032931
2283 -0.08028313555273317 -0.03467518946879715 -0.031770525308895646
5215 0.021970716818104634 0.013720916273947314 0.06865081818989224
4961 -0.011953532123906952 0.00950860132621225 0.016525752945673267
5642 0.12009663540550022 0.0721280384628997 0.01799217210225291
5098 0.04279116274724051 0.07305423233440031 -0.12276208520827342
2211 0.095959222960729 0.1453546062735597 -0.031786679626702063
2433 -0.19328731137523156 0.07775228146560616 0.044919764637170845
3098 -0.019782498901632785 0.0756780055560482 0.04455013587889774
2400 0.011470670049250587 0.0389329742785694 -0.027670736963037616
4615 0.059612014381995045 0.02589899518433991 0.19535097207149033
2287 0.06255895717616577 0.022758949999506235 0.09913712108889816
5201 0.1351927540196881 0.04639369260708261 -0.07875109495225352
2998 -0.09013909936680455 0.12368452124250354 0.09872695480015123
5071 0.07014576209795408 0.11164668291938004 -0.05377942384003788
5170 -0.09905642422583472 0.10262625486404432 -0.08000213891373284
3650 0.12148368780792702 -0.040871855338630414 0.10982973098551486
2310 0.06935973105443846 0.05156338187119269 -0.012015469087834418
2336 0.14787962139214023 -0.13280913405773734 0.09736091775283007
3256 0.05824551717503368 -0.0713405788234614 -0.00232636236706636
6203 0.006785024969099293 -0.1218973986988704 0.0035301395076745776
3046 0.002057856770283164 -0.01720533987753923 0.010356694118361584
5886 0.050399845967686735 -0.11209132602386732 0.033439283775751866
6220 -0.05245710650889667 -0.05423823707291924 0.13784278486247697
3150 -0.0010345385763452389 0.13563685518157123 -0.03816318066630913
851 0.0665163998892976 0.019137060812234562 0.1332794065627157
971 -0.04272988670766972 0.03870202283858253 0.029210642100970335
3838 0.045491463487705545 -0.08596525778868265 -0.03256810797501432
5195 0.1208631245398196 -0.017093987056405364 -0.053844546795984376
3957 0.1939835346147854 0.2631993888153525 0.05906938455117884
4945 0.003962246993886628 0.013246254612462998 0.15568507323375386
4221 0.038778278619359174 0.11474371815182624 0.04592679408262455
4599 -0.008056815680845708 -0.04282583835799429 0.05274288689808532
5502 0.04053089951962259 0.1754119191582289 -0.1326590551691042
5679 -0.11300538299107658 -0.02579319815575646 -0.04209095255638632
6051 -0.06682276456159218 0.07664811024750431 0.01272093000863748
6129 0.09346289879599964 -0.08600226534974341 -0.09320758738263253
3216 0.0471170236618558 -0.002509429426241898 0.011750043281893392
2259 0.030388976508253826 0.020267173864408836 0.05222786295938518
5211 -0.043825141848456595 -0.01735802541726667 0.03957980552735166
3972 0.08530287414264462 -0.012472469980472946 -0.20250607406158866
2990 0.03537114213001459 0.15074099540815572 0.17830671131969342
5481 -0.25021869479871695 0.006896069193489013 -0.112102267902251
4957 0.034713472145403254 0.10435098543860963 0.14376490688386248
5466 -0.07567846349594112 -0.07100289693781779 0.11729673913023408
5433 -0.1972272523366428 0.008024190537225511 0.22471722635930033
939 -0.008923073940585642 -0.05879388129168033 0.04190484674050814
6130 -0.07743409872025762 0.033773614470029314 -0.08680816954214368
5771 -0.04016851157281008 0.13091716272578743 0.12447269435868222
2535 0.0041416129318848326 -0.01911551690966544 -0.032970042558228954
2953 -0.049830251306633995 0.015135633719908156 -0.13092239873354183
3110 -0.09887026013940403 0.0160401330003214 0.020647573765221403
2273 0.17566707266430387 0.12622581024067017 -0.03910396244685147
2212 0.0009771870181238124 -0.09620892849511582 -0.0066037329660247335
1555 0.021599111327817517 0.16217115662408016 -0.17516697167574832
2271 -0.04503440182443117 -0.0180049458307081 0.06546497285098216
1660 0.09190253100380717 -0.027179820329851487 -0.014684151017757916
5013 0.12216937461064895 -0.11468553999756023 -0.1437815318222898
4926 -0.10249282981523083 -0.0716147852981679 -0.09707700102817013
2311 -0.09470484493775341 -0.09311714226021459 -0.019918956050050417
2534 -0.007809275029205454 0.11851753873767704 0.0972637824852298
3099 0.12536835608595168 0.022362365415041604 0.0006315840381915213
3862 0.06202626122658951 -0.05388573512533075 -0.045286504689455845
6108 0.029029492658655908 0.020619335316374415 -0.011375859512172098
5772 0.07244736469585858 -0.0887372250123194 0.05168172003677584
6151 -0.07667066763135541 0.011560654157703465 0.07819250182460585
3029 0.08160127738484213 0.13522711143449265 -0.05956013537029684
2974 -0.09099694160897426 -0.048753608528118296 0.10596266054766802
4278 0.10618128466582671 0.09883075361660343 -0.19186890828154696
3506 -0.17138862791592613 0.03285046267946578 -0.062151283068744706
1734 -0.1110559355329278 -0.01007566910023983 -0.07120078032987334
3011 -0.04941958087301817 -0.026625825071034216 0.20688556257785132
3168 0.010047414565749709 -0.0650229473481474 0.1244069207465872
5034 -0.07596194888675507 -0.049236846207823884 0.03818674274924183
4837 -0.045491125237413874 0.008797689645204207 0.14096914329959281
5130 0.12292857901403992 0.08008891056527179 0.04001624116746719
5911 -0.016821841836722355 0.024660565680826863 0.13609574971605098
5499 -0.20715080856008747 -0.052019766305836344 0.14565573923090244
6015 -0.00675257301204796 0.04919505861261133 0.009630586300963813
5223 -0.015740718321803526 -0.02849279118742586 -0.006586016970480266
2522 -0.04703001734264604 0.04997531591683732 0.03740133997675958
2514 -0.016533697495783012 -0.11213735925552056 -0.07118619998935777
2958 -0.11495236698112815 -0.04557647485314237 0.03894329208881818
1693 -0.0022486665756648073 0.09983733592030046 0.11185183049156286
5490 0.21451626444803765 0.156445863166031 -0.018745264291532386
2540 0.09225312233671801 -0.10232387130135205 0.15378904467813206
2394 0.029014356927849844 -0.07860666735203874 0.0803155876497494
3940 -0.18733339952065284 0.027064449098622635 -0.0803058365121598
3121 -0.026147806842587516 0.21668975591061265 -0.028167956580452687
6202 -0.03527980066676171 0.05675024002727802 -0.03376115734219177
5488 0.008756911533573518 0.051671776166847413 -0.1998067541373192
5537 0.06409986804891483 -0.02900002434530934 -0.09120466855928937
1477 0.10728747512988862 0.051495270823287434 0.06082350282620573
1703 0.022036889686551667 -0.07214717000720686 -0.08934750916576095
2977 -0.039269770355459595 0.11493543475242743 -0.06188414906511355
905 0.17654476269427327 -0.016982210937497605 0.0761641897352444
4963 -0.07690122693267472 -0.12828339412478929 0.023486659342952708
943 0.08465209047492915 0.020473200626503815 -0.30087857244531085
5169 0.016177355478527132 0.2719873521561414 -0.1218490604073372
738 0.06620338497867566 0.08852295817481895 -0.060086179101380664
4638 0.09502348329955532 -0.09381827234494397 0.0008469664994709067
3734 -0.029241620966383303 -0.12845223273144324 -0.07028162210178762
5267 -0.07735375334667532 0.016380660761041062 -0.007564726443688743
5073 0.05832225312730458 -0.04167920275581611 0.02755939619150021
3543 0.04183944801751157 -0.06532258542157775 0.17152420353022768
6134 0.060433049490006 0.01078132924350216 -0.13751223067595425
5871 -0.014209478433259506 -0.02982669768055591 0.01348285240948802
6143 0.13786286492398642 0.05499269696114369 0.032010489487328396
3006 0.06744021781358117 0.13675588368087094 0.0017397530077605007
1736 0.012404745181268075 0.08699919380177074 -0.005342248064608465
885 0.1543527884350456 0.09680040767596902 -0.081433158597216
1468 0.03508711574740306 -0.07136761088104455 -0.10202675858433186
848 0.14886192561464187 -0.180529678700367 0.008436338828778197
931 -0.03831390342647801 -0.006597027580379829 0.00632176785106447
1662 -0.06285078297597821 -0.11229022164429894 -0.18951723533544634
3842 0.07024085577923805 0.035273130105821324 -0.1457344049661152
5432 0.16577225554723166 0.07100873225228016 -0.13384688715236684
830 0.016049269761339042 -0.0630089539559175 -0.0873951254666301
920 0.05145214168386627 0.23643933462367298 0.14507151538307472
3179 0.09812498667382022 -0.13047923524258803 -0.22718358626157079
5718 0.013479053357894306 -0.0339572806519261 0.17002440831278928
4509 -0.02928573907620768 -0.03899029403947806 -0.04197239788386388
6185 -0.04531828167707106 -0.0662766225063017 -0.08354894948448176
4228 -0.057559109117814124 0.10273256795680204 0.051434721063842906
2554 -0.005862805675248295 -0.04546445888328935 -0.003774844181008768
897 -0.09163997288685234 -0.0008403518063167907 -0.09611743883787105
1019 -0.07620031713121343 -0.02092739364225991 0.1454419687007178
1036 -0.05201175666660656 0.0981838300441498 -0.005105948684676714
1721 -0.0786626482752356 0.0012057299525730521 -0.08132137788537463
1722 -0.10648326270337459 -0.004143555418223305 -0.023311430910093894
3241 0.03588334636273161 -0.10028722853472605 -0.23206457084934226
1644 0.02522070006769732 -0.08816245314913852 -0.059868546227748023
6044 -0.1349695835174581 -0.010835432803188775 -0.00587830686877927
5755 0.01916905477862679 0.012521405807448005 -0.14692181431709148
6114 0.039937065373150483 0.0879217796369034 0.07645456123846432
3391 -0.058015156960496535 -0.13626544618203812 -0.08268975212925372
5087 -0.05691796206398992 0.0981171900543179 0.05858245373873913
5682 -0.09207621180019834 -0.012910496824183805 -0.07724582835381746
6106 -0.1752121259348659 0.0697709649525032 -0.0068065837226994694
6125 -0.03623307965565658 -0.038444127662788985 -0.10446476419643733
2547 0.0009813181549256488 0.01924821466571332 -0.08107403295853205
1480 0.05512428900252394 0.07023721796533938 0.03637694297400421
1002 0.0918237574276233 0.10421386418015423 -0.1956441262055658
5093 0.11045902946485957 0.00197586356521701 0.005598243297287253
1567 0.002813978660150867 -0.08696427009302421 0.010297139549929113
899 -0.06564462671001091 -0.0754713269259509 0.032580961289388005
6036 -0.10613098216197314 -0.09431648722962113 -0.006088056831274396
5989 -0.08271872613105744 -0.05710262753025595 0.05842669805776453
3523 0.016605633974427495 0.04829135176068783 -0.05008077315334499
6161 0.07341988994556965 -0.027143143134794046 -0.019908081718202516
4649 -0.002045008485997634 0.033503382022301166 0.04267005363705399
5745 -0.028608879954163207 -0.003303958730310636 -0.12499932756747481
1607 0.0491073208738267 -0.1258944221844423 -0.04309355070921917
2223 0.03495260083349708 -0.07786465242324093 0.018175600648635513
747 0.02261428997017513 -0.04850342508434781 -0.12288351387048094
844 0.06421361013640947 0.16754575888070938 -0.05443314181782995
5336 0.0880842705690301 0.10962879873157824 0.045546116941731205
3073 0.024217973141248586 0.0984253512829701 -0.07937919613281855
2443 0.05426235700232739 -0.01741426092395465 -0.09680315493075739
3247 0.07658127486427087 -0.015429744403311105 0.043504139048120574
1649 0.03642892760422021 0.0055354624973789 0.012764773937704976
4372 -0.021919419387642143 0.05310850952326382 -0.10011119796371651
4565 -0.0015889665267977762 0.04728007210181759 0.0327785739558936
6213 -0.044643872492899084 0.15255926853328908 0.01490743661695254
5751 0.14821451155448703 0.04728698685986846 -0.04540684866735094
4734 -0.05968286914379431 -0.05133646070008578 0.1113615975869981
6126 -0.017951465393367675 -0.04593681598247131 0.16732555847039093
5426 -0.003792978864691222 0.09747597127968002 0.08529727808709434
6242 -0.07737137711744915 0.09622761905134598 -0.04708445499769
809 -0.0594841107528832 -0.019277649685809972 -0.02946957152022756
1473 0.03922394731313233 -0.04252219981027382 0.10503114702167957
910 -0.11995312016233697 -0.17787032085604063 0.11353013452212335
1760 -0.05227772990109297 0.10584684147016513 -0.03957905321550888
873 -0.010147741900094032 0.002558243059453837 -0.09976240546585455
853 -0.16609872271868645 0.05570128263016913 -0.2950492533632693
1070 0.06362082817502827 -0.08176106334100376 0.05384641422788826
1764 -0.1474295674827259 0.15079837233418472 -0.15191425252386306
835 0.07412804128076936 0.053667409215338364 0.13312987868759468
926 0.07067849790610817 -0.14357077835487506 -0.08345980330371341
1008 -0.0017122051188776972 0.07313487670702576 0.11338052408227946
5312 -0.054849943181723794 0.08397718524737746 0.2795643237394111
973 -0.015628464314011027 -0.027213541381653147 -0.011098193209726086
5292 0.16320716234184307 0.17358765208293453 0.08359649627166733
3941 -0.038635720980502844 -0.027692162303123304 -0.02791002851571619
6088 0.030698994641130545 0.03195174100704693 -0.09865294348247534
4545 -0.07207162873406231 0.052879272198192086 0.0013174211900683387
1101 0.09518136828694342 -0.022752223089096288 0.07185853962921929
1508 0.013870734780174324 -0.05314060177695927 0.07869547067128249
871 0.017821082511714166 -0.09519508667395113 0.023239528300685576
840 0.023260941919240413 0.07118949587869886 0.07910630987848076
1044 0.04977137545914121 -0.009368261444381555 0.0790769977856633
847 0.040477935696827845 0.11442220808511927 -0.09232082511353704
997 -0.07072593643438393 -0.05464491249683254 -0.037553631148260526
4942 0.07534712582308921 -0.11079877320015091 0.04970630885663964
3223 -0.1141968523992619 -0.06044395561473302 -0.22558853188159533
5655 0.11900716267328795 0.007676936564427857 0.17380526029875504
5425 -0.09618164221600246 0.16989983447000925 0.087411882128865
5907 -0.06595333778311172 -0.004527298070632719 -0.1221160371686739
6192 0.08155495204799988 0.01858420448884315 -0.035049651791012396
6128 0.06846600922387744 0.07907991271826117 0.02218353565529477
857 0.06159834267833114 0.1293631927676676 0.007753536950427032
1774 -0.29649752053697964 -0.207339980489421 -0.008292307092895492
1046 -0.16746616450209517 0.08040728065936864 0.2868205297341186
1550 -0.06449134733130744 -0.002664815850364516 0.013454263131450941
1807 0.05192739805869969 0.11309336404211118 0.07241219210022372
946 0.01496521743518412 -0.01700424295890424 -0.19805901574784068
849 0.06565380791919292 0.031247240193641564 -0.040281939097088326
1668 -0.16735611468998832 0.04457425398060315 -0.046977212063171334
5651 -0.11998963153257923 0.0748348212448112 0.12203078926746869
5530 0.05869290706721391 -0.02331145928229461 -0.07600023334323558
1537 0.0818018396636139 0.0598972569940902 -0.09200828997960986
5471 -0.0998960201942741 -0.060091021716665007 0.1190545585624588
1558 0.0019731585651117187 0.2968241978433228 0.0405242955703443
6004 -0.03918205575152693 0.03433716816138069 0.035342436477526815
1793 -0.045706679816393904 0.1679559235276 0.08815496251391976
780 0.06433075466456317 0.010829064154296433 0.11177778615246024
1076 -0.05085436776907584 -0.03432361793179671 -0.21299721934270902
1596 0.019037233411486807 0.07856129847369242 0.04607844324327942
860 -0.07658288725991542 0.0262641074282494 0.05633938660146863
1071 0.050982061268462595 -0.01527556797818078 0.06677917387970819
1671 -0.05787599057774684 0.009759517932684172 -0.01953214617504831
1573 0.07627417309655533 -0.08566231204567071 -0.10377951016318132
5538 -0.11372185336682036 -0.07967492572016506 -0.09844570123775279
3641 -0.014173156497107353 0.06671238232434436 0.011864313696320728
4240 -0.058952680030219494 0.025651641188138563 -0.13154530177127893
6054 0.05784448513414077 -0.02675707084326007 0.025663604404015827
5416 0.05293338041308918 -0.08056453267705638 -0.08081878580250099
5887 -0.1455383739555738 -0.03367204615389325 0.15573788481054043
1513 0.10245025015516278 -0.09418950120426903 -0.09145558302105763
1591 0.026803673839409847 0.0708434292363021 -0.06061387899865576
4698 0.22251660703185733 0.0979137230382349 0.07819753567673175
1075 -0.03574515786889778 0.22581523244713325 0.01942449685598234
1073 -0.09805112179256814 0.053542675739960084 -0.029856872865070987
5089 0.12378948636261583 -0.0008219367644759553 0.03893971560137163
4960 -0.024653957670181578 0.09287922760611864 0.010415737902863542
3515 0.10592898569135498 -0.19658011446352225 0.10638975556065967
6246 -0.07649455899225491 0.1070760838359115 0.08512859280364198
890 -0.013320235264719517 -0.15447886930914762 -0.0011177453950416971
1476 0.06798361655321124 -0.009888451688433577 -0.11759954603798466
1548 0.03486445821364062 0.10641708226178902 0.02487504658581449
1676 0.16981467740383782 -0.0912434147121476 0.025260788034929607
837 0.04218209729994138 -0.11332332251432972 -0.0581234485285456
3521 0.06732422481392016 0.02010061482584081 -0.09389156089100391
1572 0.02715718382347714 0.02108843710617335 0.08632799431289591
1621 -0.022638541948876288 0.14333955134619994 -0.003840073951954997
1598 -0.09257580688494589 0.012845465649370386 -0.031658506125236255
888 0.01615260682400618 0.06824554119598174 0.0895643610361007
1791 -0.04092994388151343 -0.11757561172604554 -0.04813924822734164
5165 0.09513221907163781 0.001200882656839021 -0.044737879567382
1005 -0.0008662498568263385 0.017545361630954236 -0.00080952215228405
1524 0.07770843501181278 0.2144455217004444 -0.05771990402759942
5700 0.09550222252507587 -0.11844648847037095 -0.0029323045705123927
850 -0.06584833501571918 0.04514706141751487 0.007179613470676218
6050 -0.10014523810035422 0.13850862228386604 0.0473684198208879
1816 -0.004998884040410623 0.1471507468930436 -0.03351374910728009
1583 -0.052070082208884594 -0.0007417366698384796 -0.06738452393031182
1047 0.0430304606995742 -0.06121013498701414 0.11855478466103003
930 0.11439633910176533 0.04309347877248315 -0.02045779617617244
1054 0.014399560982611904 0.03355649470298675 0.12947567666761725
1678 0.0801472313980333 0.08202276845808484 -0.11655860932272112
928 -0.13534248269801977 0.0023130588411487615 -0.03569887794613485
874 0.038928620849683265 -0.07857170124868904 -0.010182318341621125
5150 0.13808612750405103 0.0866606375201365 -0.03310543936945557
5681 0.06947858302502706 -0.11674293518377771 -0.024578498289590862
968 -0.24826013657807694 0.029592132250973652 -0.03334323750313564
772 -0.07851302967754308 -0.08311102047111649 -0.04992913697446105
1571 0.1422740549853801 0.13468239378640076 -0.11079091020423394
5422 0.007421883814829066 0.09564107086592394 0.12528819548374948
6060 -0.0159381107733819 -0.07205908202988881 -0.08453762554502452
5934 -0.018877530013835762 -0.09813805871541809 -0.04876628013174568
5406 -0.1099426334660586 0.029750896585037795 -0.024027093394433725
1619 -0.029639864317121088 0.07456901615773669 -0.19505969786017813
1038 0.0605259708620331 0.1867698310090759 -0.14549204715804379
1599 -0.030958340557560304 0.0899317387802269 0.06200300930162717
1097 -0.09447912312407139 0.08844777554738614 -0.12494184786555067
923 -0.01683480639408614 -0.2482392430553193 -0.08303208588739823
5147 0.07262035599888989 -0.16005850216878553 -0.13708447805096197
951 0.09927765312328156 0.1443751416063496 -0.08280482326697015
5589 -0.0713680571282016 0.011056566471494687 0.10097813933826708
5796 -0.010326519947391642 0.06983966874973394 0.052577234376057234
6055 -0.13612947322742672 0.025675809609952607 -0.013151921399726225
1590 0.010234712417935686 0.050047801641394066 -0.1209567581271338
1492 0.09897652442949129 0.014325162888281066 0.12525942030141485
859 0.1024148916514729 0.1608341726994481 0.03482496504507923
898 0.018992780296828188 0.040012475881923734 -0.042688922745624996
1623 -0.03714461314320056 -0.07753264462566564 -0.07141994913680788
1026 0.0975176144390141 -0.15671366022819305 -0.045935756830701495
4379 0.038191500373483574 0.025368473814474327 0.014834094994682103
872 -0.16917504080722345 0.022244578199384357 -0.07049358852457731
5470 0.09785866483942421 -0.1887197745631274 0.0396805142459401
5092 0.0505478424538324 0.15606647321978687 -0.11642653139652319
6053 -0.10345579487917285 0.12634107924542418 0.1883635631659465
5995 0.1252810062459101 -0.2219950538184292 -0.07424135143572608
6206 0.014143048966242425 -0.06906810627464284 -0.033158638976474065
4105 -0.10009894912180761 0.1964254444391233 -0.09615509304462941
1564 0.10997399890765928 0.18566190743881844 0.06053953243625051
1023 -0.0010365060232751973 0.03899507383585224 0.007652548218396929
1677 -0.05547586222366286 -0.04778809061009128 0.05936748894060294
1049 -0.0015954048898207023 -0.04045583857966135 -0.09431027892260005
5162 -0.2707149490430643 0.12463620113441437 0.08275474582866538
4374 0.1486570486470952 0.14414370666894696 0.09689322043017103
4940 0.06263859210546385 -0.01922664625481914 0.026025262718267092
1546 -0.16089225391512624 -0.007242217140118183 -0.052978844087696084
1729 -0.031701703040743906 0.016031632583258106 0.18720690681990348
4969 -0.032076633518494754 0.08877976065740986 0.053445454779340706
4622 0.08313643636406762 0.038534149031826635 -0.08345779937562751
5680 0.05304812015475674 0.06823904687837623 0.05560106014496337
5399 0.0636843539910224 0.020735493031838064 0.06345820987067863
5246 0.03209049988134206 -0.12048567294624334 -0.1089308082578013
5969 0.07224910607053499 -0.11520083259507287 0.11444250765017167
3621 0.05082330922747172 0.022491011980240685 0.1398708168820288
6200 0.038657983891582946 0.11060749879388991 -0.06211032581630954
6215 0.03515534725417312 -0.025595156234780515 0.10908516510937191
1543 -0.037336021891498 0.025949461899322457 -0.0065230866650165635
766 0.04960002366586704 0.019327740852356758 0.009407128169971562
1566 0.014023340831709656 0.08873735364296176 0.09948585661464332
162 0.16212480814425084 0.024137258847918945 -0.04646369830131704
1512 -0.05839009419941785 -0.11823115204934315 -0.011504480846356259
5421 0.05682450856434236 0.06490814585901658 0.08586306324442156
954 0.06745368528145301 -0.0010706286005921582 -0.02998546921133899
842 0.10667310328757292 0.08397745219503967 0.029497073362958866
945 -0.009711839094403488 0.20186350334930883 -0.002005543218331178
1761 -0.10928821383343182 -0.10132694600459505 0.02015818451102163
5108 -0.030322489708470728 0.1443594232412611 -0.038370787941854514
1077 0.1238230702676608 0.01869903320528202 -0.1660669077361219
5988 -0.04783776320565224 0.10752110575942266 -0.09072124606030058
5611 -0.06517983904823903 -0.0029587937670533305 -0.12871571048275612
5982 0.0597470778515299 0.007452425698994956 -0.1823322935929185
6142 -0.026685375305946488 0.0696799913907067 0.14520924734044735
761 -0.07675942491799112 0.07439269797362377 0.030514899270093886
1737 0.023781923868338807 0.050641660345342975 -0.06412378784485269
784 0.036098269382393806 -0.07075129865857843 0.11133626871445379
5151 0.14890939075166262 0.058273399737398104 -0.11223495861555013
988 0.1160324649596296 0.14368474522106592 -0.10145105036741925
1087 0.06294702339647607 -0.07925886776919637 -0.021329830470164197
962 0.16737337183113402 -0.10544710692695039 0.13791042172665524
6140 0.019045400707479836 0.15190432236500698 -0.0169733136985019
5086 0.09640985021636579 -0.12973869405705205 0.06492024551263928
1017 -0.00940287833652526 0.1547715813412503 -0.12319456533145252
1582 0.02217654315848433 0.09080508759763728 0.0058424500964550305
1009 0.05333079377684734 0.1621863121121039 0.03398044475912919
1752 -0.16463317366013747 0.12423881927703985 -0.12222566714387008
1554 0.10093568748540253 0.14286582102034717 -0.1107859814054695
868 0.06742776918470021 -0.08595174406223059 -0.1963346456083387
956 -0.09946952909725736 -0.056844625567401504 -0.025506008519519705
876 0.10523276584676784 0.10932950328604028 -0.1118937904649974
5230 -0.0010919107543378636 0.03924126113566307 0.11310354278385817
5049 -0.24698357087844136 0.0976402352420895 -0.01900768298041607
855 -0.005827520809188384 -0.036079156614750835 -0.012851731771597133
6041 -0.12043860071832208 -0.010993635731574622 0.05959442314160529
5398 0.013672424759377622 0.11982717650116786 -0.09155275339098892
5750 -0.07285084820596054 -0.16325193929150894 -0.005025695327287248
6176 0.08261362953538695 -0.09329843309235858 -0.0949017025102008
1637 0.06782565715570102 0.0015297198904126036 -0.09607215386455628
1068 -0.054420061881041065 0.17832217979748374 -0.12326367619479907
1082 0.08136190933031125 -0.025900677667419228 0.030008642059947785
1504 -0.05372732217079554 0.16203919688444143 -0.1293864161180145
894 -0.0868836974299563 0.06956248658689872 -0.138761002922214
4863 -0.03694955045758212 -0.0570363802897856 0.011040213879160746
832 0.10528968530313894 -0.09188457947262779 0.007675448225403038
4369 0.06527949155133755 0.05055962575897362 0.06614942656145163
5152 -0.0005597286153039872 0.053275755256346743 0.07579995759522928
3865 -0.031229526868247513 0.05838035483752706 0.002045982694705944
5659 -0.049042585727032725 0.10199182460152222 -0.1111235108561118
5468 0.08901345112500401 0.016485648062775318 -0.13213275757088958
5532 -0.00017454084203603947 -0.01665439787833882 -0.008793640429714478
6248 -0.14561931567343156 0.07575092341500635 -0.04490643339447304
2358 0.044234369309249885 -0.038744452375663235 -0.039279912565289114
1020 0.2178732446458202 0.05584305712616264 0.0865770405149779
759 -0.13134173063679208 -0.01640458364097792 -0.06128515797458911
3412 -0.09520485302311901 -0.0917335936627583 0.02105887150657087
4422 0.10239837693951931 0.04432348476735941 -0.10091547571373523
5156 -0.001640747613293608 0.01122781803367602 -0.009205945046565734
3854 -0.16707883947490573 0.1341016224871885 -0.14037106518459463
5779 0.01220808149205744 -0.12305370068810395 -0.12302232399267232
6001 -0.08483228506586757 -0.039890825049881645 -0.13826440232426998
5669 0.09915059344505035 0.02736118811883647 -0.003967365472787161
6249 -0.06355487385625308 0.05758315288527953 0.0814123250494257
5656 0.07313964569639389 -0.04702227913105603 0.10910705024677905
6046 -0.047064194222981304 0.04343186965969591 0.13514287290468643
6137 0.023912186083074143 0.08765986534091212 0.07807759548884
1380 -0.13184356270406855 0.08278787467542051 -0.1703230199949894
887 0.03473762450446276 0.10942188664928548 0.09675246563210955
1666 0.08035567293393076 -0.06337406726136373 0.021941163580184317
169 0.1811334513322493 -0.04127286683266515 0.03547518315895922
2471 0.10958230668875127 0.13174032792014045 -0.08271787672252366
1763 0.00014684672756821657 0.08762689052823121 -0.12212418737388532
858 -0.06185358673494128 0.007117564741947071 -0.005597537522264343
861 -0.003073898505981861 0.11340593301447 -0.051551875383568604
5703 0.0030622697006602575 0.09023620405725338 0.0516945211718132
5429 0.05865275325459512 -0.11271990788561073 0.04799299386842389
864 0.054035361297791816 0.0933966537850341 0.08338318616371575
818 0.08909563075197538 0.09031121187646549 -0.035436553992326064
5893 -0.00744859694604376 0.19769053997181815 0.08188225916093447
5351 -0.02262619574684977 0.05911843504504369 -0.03785693029363723
6118 -0.028884099239914255 0.0791509479782163 -0.1912858534139894
2351 0.10924755818062272 -0.14162108647091975 -0.1561187736986462
1762 -0.2776094150299602 0.12218668657877903 0.0978150476998377
1798 0.09050324647288799 0.06640006768188808 0.08879008450514064
2553 -0.044219484834010996 0.048633432562063574 0.021276759430317784
5033 -0.16323678229916572 0.008868408046037283 -0.008737840279621444
3746 -0.09630893936837102 -0.0898715247776668 0.05470713981111184
739 -0.060518210930423415 0.10407325915127341 -0.029608985387851984
5243 -0.06968126246470392 -0.03762066229968242 0.06280190558840196
6256 -0.0703120590003783 0.043184510186182565 0.16727481170658923
6218 -0.03200072651140237 0.0963362372509449 0.02502280677826628
6024 -0.06674343666656855 0.015400225883396753 0.08356137321836521
3202 -0.24830000713998526 0.1013298233327823 -0.05388775904295703
1697 -0.007360891114455257 0.1393649144572701 0.02473634527338532
1478 0.08933164709613363 -0.023226228701641323 0.010474003561707228
1541 0.003406753908674679 -0.027890616191637407 -0.026737889333292856
1810 0.04598952862398653 -0.035955217309746434 -0.033683390044558115
909 0.12080862119601989 -0.10702047915564555 0.04277235631838318
804 -0.05817983513854351 -0.047057825484636426 -0.16373846455980212
1790 0.052343756084871504 0.15862846692606933 -0.06928758536833468
1576 0.08977989406026687 0.08937391091239914 -0.11841791444093089
4672 0.0421864363914425 0.12461967088472356 0.1431905246878647
4049 -0.013815659994879605 0.027034354334723676 0.14601355276798633
4760 -0.11767274343828503 0.15785275356690495 0.043852689513227384
1040 0.04155173976589684 0.02474978070808184 0.010021104925879062
5423 0.10016924456881673 0.10158510323982536 -0.12314127138554826
1806 -0.11167560501868642 -0.04866636552910277 0.050094473999506714
814 0.04133089259661827 0.06140379109678253 0.0420821674627131
3077 0.058990166301763305 -0.016713756842831072 0.014833170928859562
1494 -0.045527884033911684 0.033933209898263685 -0.048405268153436244
881 -0.2767413102186451 0.10064865891627627 -0.07139194742520309
3071 0.11049392301603675 -0.05402986174175911 -0.040978351111772726
5085 -0.044730749220134196 0.07282774117000664 0.03290444291950863
1724 -0.0018952338310753922 0.018973712658294173 -0.0901369953481471
5168 0.036333365073541374 0.02682668780897491 0.056392766424813896
3843 0.09348396990897653 0.07551847242408459 0.09013401639295103
3936 0.07216438787026652 0.04892863987590262 -0.11032526234171551
5601 -0.05057613205593638 -0.1500081536490933 -0.06647549595671692
4958 -0.041230781550825775 0.019432859164007478 0.03258122067301471
6207 -0.1246396016649631 0.08833813641936203 0.025859462238749156
4220 0.017094902077188404 0.0543897093401641 0.02115352033053772
5431 -0.07228441257767304 -0.08418884966803154 0.18883496900234192
4994 -0.161252864285396 -0.020120631779314807 0.02585310749322317
2965 0.13319092289998238 0.04073531980903845 0.01843670922334252
2456 0.19702163130982822 0.05490847502811765 -0.1081337639687049
5373 -0.042955818380010426 0.03901396818975965 -0.0329375224300382
801 -0.007517925172173805 0.10343116606756059 -0.1830244608651623
1507 0.105539802599648 -0.006802911098093764 0.009785614982729389
4050 0.06351196252111298 0.21982165243582943 -0.09340569333871095
3405 0.19728638930374398 -0.007524456856446433 0.07538869394359572
4979 -0.12256876496405332 0.14671617195817727 -0.10650379560468447
4483 0.0478219583852343 0.01576114873388268 -0.018592757841163064
2666 0.04806344654948004 -0.09936996560299821 -0.19628640185019988
3233 0.04338445667015464 0.10737883436808218 -0.014516806945117366
3063 -0.06484871275789592 -0.0505020799426016 0.1848543853971485
2263 -0.18276294715077526 0.0034974108877727558 0.006798689286132083
2238 0.1424412231518158 0.053487116507179175 0.07124276428763744
989 -0.05477649493302874 -0.06970568082647603 -0.0260825938419044
2531 0.06775220647170031 0.17904830565560237 0.14246187257287307
2234 -0.17395978017164992 -0.18227997205966603 -0.007646244835387148
5047 0.014678173530751055 0.005112908886755876 0.06700540775087342
4620 -0.11522310217084689 0.1313414467515963 0.07295665288982253
4546 -0.11184139830490542 -0.15363494766602476 -0.19868726442565254
3639 -0.12594000314574133 0.16304390504312016 -0.0003750808662492406
4938 0.04625548827468409 0.11190250805318647 -0.06281185707424991
4444 0.13816884866174078 -0.09462019219938093 0.09572200547440456
5748 0.08571605481891123 -0.12010884261828901 -0.1623376263564277
1042 0.018856524499346754 0.03510314321939984 -0.07791120135277933
889 -0.1354799491777735 0.041290127236169566 0.1052765567796663
2391 0.06970667143852363 -0.14207164968185418 -0.07606222548091662
2304 -0.10514456499297664 -0.041366546924341815 0.055553506273468806
3221 -0.0486063634176304 -0.20770558269399694 -0.03020211495134347
2508 0.10546924643734733 -0.12090366924844759 0.09717427794852612
3776 -0.04333773503342225 0.007863248524271022 -0.05486585738488093
4331 -0.03269223529508482 -0.040018360549755584 -0.07990524306447586
4927 0.106669514825877 0.011176699153856714 0.0878292275211698
5122 0.02142095673457824 0.14310763536013088 -0.061629804288617016
4674 -0.07054147729945341 0.10945200028359668 0.002000878842465935
6219 -0.14354052199425163 -0.052058273280483625 -0.14221019672940796
5486 -0.16739629673042525 0.0204770097432021 -0.10783708806431537
2490 -0.11484824931826937 0.05003736253870433 0.07677685173803477
949 0.023725564047055593 -0.12656480338717432 0.013361897553490442
2237 0.04236033013093962 0.044108543050504906 -0.04915109760136979
816 -0.018489661777919646 -0.06921883913016838 -0.10940299739873191
2459 -0.030225222725699778 0.10480440902264336 -0.07267232057228223
2912 -0.04060104277163537 0.09273637920229191 0.10522553966506935
5232 -0.00868023286597499 -0.1599300493899401 -0.12310833450234379
5540 0.018281581725769665 0.0588313774171114 0.0426667921039912
5825 0.039026887285425436 -0.07262732016600858 -0.13739177668530575
5749 -0.00774217062667262 -0.029451875708991274 0.04736946069934076
5291 0.056368355545866375 -0.09982048170520015 -0.25600810138147007
2339 -0.10240977620016767 -0.04228122813535186 -0.06984827186244072
3082 -0.08067563098417817 -0.029229210333744926 -0.024843260536241668
2512 -0.007461201052735761 -0.12985326669588967 0.028115646380840804
1672 -0.08406763866389722 0.004482301673474558 -0.008092886675345088
2248 0.18366615418741672 0.02944321657942422 -0.0026524390788561815
5260 0.005180119871522701 0.03856192941198999 0.10171476409634134
3192 0.18927172005989415 0.06867697948612628 -0.19319365745767986
3347 -0.05548104607921059 -0.03026435485356493 0.11844627040224634
2429 -0.0917443063880329 0.06889740416061063 -0.06136414239822526
5971 0.04876747068057798 -0.015258163130039248 0.09214519281534148
5560 0.18647913949542294 0.13642544319283523 -0.019003025315767454
5865 -0.07497684334032365 -0.0535903367605089 -0.021430848272966554
3165 0.059551441778136975 -0.09782104280448348 0.0956745950586196
3107 0.052483173853331025 0.13091299346268312 -0.04613654742676054
4948 -0.009199778768057318 0.04646282419618814 -0.10660132565120689
2359 -0.21178007163075074 -0.020766930224954797 -0.007725235300089943
2298 0.18639324385117706 0.07438731030787823 -0.015923636971112223
5091 -0.05516851196040926 -0.04197384881033859 -0.04123585392413471
3356 0.1571414298750266 0.03713015232145029 0.07324071410580654
4163 -0.0312211923811517 0.040423632850774924 0.08547050271259987
5164 0.0882778475305701 0.015295755564610125 -0.003549867554940849
3527 0.001539009428853766 0.035261228213724856 -0.031050173101286733
3736 0.13788039516287523 -0.03141101351556748 -0.10714043948396022
5653 -0.06528369256343566 -0.012745613567768939 0.07497756009697848
4637 0.08808064079646716 -0.06857827108824147 -0.010624160738401885
2243 -0.06419750418626265 0.05839602074822722 0.0732780509627073
2251 0.039252306684638014 -0.01085121785465139 0.037069315914271816
2352 0.025638838195614033 0.043673322405882176 -0.0610898401023233
3228 -0.13188349009459974 0.04311829903914016 0.019371940331601646
5041 0.12283692316853745 0.02057500028930534 -0.05414909396628746
1742 -0.029814514615665727 0.14898789144276123 0.006684496288310658
5793 -0.03506129836208331 -0.06879500121509931 -0.015541652885294212
6059 -0.0680483601736277 0.05135002881550067 0.09449480485662552
5102 -0.011022173105948208 -0.1026033449855905 0.08707501529143105
4978 -0.014657201765118352 -0.015770386699561774 -0.05481086672249457
3965 0.07730050901319138 0.21479820394609314 -0.026171491635290714
5588 -0.11815917183094528 -0.11246780402508333 0.23920879024656433
5487 0.1488327769412028 -0.02885794637126552 -0.07907102881190331
3232 -0.2160586593859805 0.05262159667449631 -0.023645141054080058
6040 0.06055640347207059 -0.04340242893731971 0.0950725726601605
3122 -0.19300941712851874 -0.01638653486025076 0.009438636973377969
2982 0.08076220061031586 -0.13914113968527062 -0.19734444338560173
2371 -0.013278934294675956 -0.10477040907113389 -0.0029058254149535636
2448 0.04549045315150909 -0.051284596431922985 0.1012602260356463
2981 0.01773854452429284 0.030552946146728578 -0.04186563912173187
2306 0.0028694709266226318 0.0071322160106754365 -0.05712460513431141
3112 0.12637663384163372 0.010919513675340886 -0.19211606195148373
2999 -0.02030483229878005 0.11455623094864911 0.053127956949278965
3134 -0.010304969856189153 0.043353183319678884 -0.07671167410470155
4458 -0.07081061442562156 0.05889855773629668 -0.09730717756053395
3146 0.11207364578623881 0.2194274301108985 -0.02600221971970231
4661 0.12259259641838141 0.006275421469053343 -0.08271685196471275
5354 -0.07921316352439403 -0.01880081714531473 0.05550019948681689
6021 0.0709378449896369 -0.05786434694220694 0.09640434678111603
2307 -0.08748154409984908 0.03129470971512524 -0.016295753261504252
836 0.005896777770332477 -0.1984796598842906 -0.061898255013160805
2449 -0.05519116067840138 -0.13842232906946864 0.12429037857409664
3057 0.0006250100447931306 0.07311188822371192 -0.0716844185422226
4225 0.03145803287516126 -0.09605351937869289 0.04917892950446002
817 -0.023513608332511857 0.05686215053006082 -0.08335322977225783
3031 -0.07518320400139622 0.06366647900080957 -0.025124884522998162
3235 0.07223787891290942 -0.033148310159442126 0.1863375376275257
2299 -0.055061325207199904 0.06768075761236236 -0.2039669769892337
3767 0.07958572258685379 0.028653999304577363 -0.022643816166214487
5776 -0.01710772260214256 0.008434241722038929 0.1714886658272503
5095 -0.08878787222021457 0.04932804248837573 0.07068962059005837
5309 -0.061436004670755696 0.11545570830027929 -0.056842947237650765
4325 -0.0034360329988264125 -0.0005731593993140533 0.10116975402515896
4047 0.04124731200402046 0.0157991580973052 0.1273108475815196
5866 0.13589191997565978 0.03107748454354568 0.030776436347253397
6197 -0.007552721943060434 0.01527121875701571 -0.18366493666209552
2474 -0.027821720371866032 -0.044413483366605735 -0.08078395753915608
4445 0.08172303600957309 -0.010312640019650675 0.15000694830254654
3013 0.16014405854129393 0.08606221935129167 -0.007571493826067685
3016 -0.0951614634950125 -0.21200914023141249 0.04860561394971796
4933 -0.019067823787955646 0.13102956187329853 -0.1726422509672967
2436 -0.13715037702435762 -0.02006404817438145 0.01179523939691135
5501 0.016066820218164433 0.0957800356488229 -0.07549674325726764
3547 -0.18546743787539915 -0.030386044328412572 0.05218601319273191
4451 0.15440958639993246 0.0040678027875660295 0.022641078874400998
5943 -0.013574708328601243 0.2129338973838708 -0.19714611158074138
3184 0.11610009966947821 0.03136119923757533 -0.10440557583696793
2295 -0.011323184104789642 0.04477274718032915 0.035469434117816695
3164 0.012070917702862359 0.011214493484662323 0.04653784293739919
2947 0.05299100521384368 0.04571319069395853 0.10352813639225418
3088 -0.01809389724201388 -0.0964655209649953 0.042426851386022764
4170 0.05332382461354543 -0.13294637150440058 -0.07792093565090223
2481 0.0494968075000025 -0.08455089219300423 -0.03883594184797659
4161 -0.03850111721542931 -0.05819706849647428 0.0334887302051317
3664 0.03162401148049907 -0.052291292999383725 -0.11058109116099206
3366 -0.007360625741033931 0.0087151885997244 0.0033729557614312553
5420 -0.1498531930558106 0.12760429975729407 0.20985112423978408
5472 -0.13024201469457103 -0.030800164044690933 -0.043135461430611095
5965 -0.04354889713644498 -0.1805032403832646 0.04842199204799644
5812 0.023848216931841595 0.1741975560222957 0.01829427428652165
5388 0.07787750638675961 -0.03287704909949642 -0.18448580405462678
5271 -0.13813503754853068 0.07901631666067618 -0.09610973296629756
2356 -0.03541909681123746 0.020069147583336566 -0.06613673895841202
2264 -0.04917760999060003 0.03750736805730834 0.011429067740500436
2198 0.020347445932533948 -0.09085160279633946 0.0036232232419281356
3044 -0.1416237745864482 0.16276278264759617 -0.14471816633237336
3162 -0.12063520030142333 0.0559924816553418 -0.04393758473403206
2301 -0.09977888079369797 0.11542328048438172 0.05992004743120784
2430 0.1250872211693187 -0.0711038090167216 -0.09235489617458673
5027 0.13555822164633155 0.14619451026292699 0.21070873951057192
3105 -0.009589538548801275 0.041200089097104146 0.07101676524003364
2410 -0.0201944086415347 -0.046421479042408155 -0.04096916273392558
2316 -0.11686267460794347 0.25566679567116646 0.09920565596020371
3138 -0.012501408068053301 0.11727416736494398 0.06387892968353814
2242 -0.10663865730176116 -0.0705127353390527 -0.10021518708172385
6214 0.2645599805367734 0.004703525103968128 0.0796185866551363
3127 -0.09448203823416992 0.15090916863312595 -0.23824058536869053
3002 0.1660995890498552 0.21655593615215077 0.0942938308386432
5720 0.01766249690507611 0.0519008062472498 -0.05229192435695885
3533 -0.1388983191958421 -0.09658851193474681 -0.034622990518927796
3219 0.055460580759012675 0.1211240634982786 0.09911444573631853
2330 -0.07030344217255076 0.09166495501351893 -0.06388845444590079
2312 0.04465964890720024 -0.049748112012866455 0.05879842062141792
3027 0.06686234303644828 -0.04499095811249675 -0.06367662697755787
3137 -0.06154779737383874 -0.015620739224013871 -0.007557884063226182
2507 0.01155786355100082 0.05279588260230105 -0.045505797367316685
3518 -0.1579245454459748 -0.010478268621120649 0.2593502384453935
4754 0.15679711599379717 0.03482411988326954 -0.10250572516430863
3036 -0.07859610699931684 0.008846629734501243 -0.07959496489950549
3043 -0.018571509843008715 0.10005404796557574 -0.012510261064371551
2239 0.07062168207694255 0.01728299643632271 -0.059774289292034745
2387 0.22280214671786439 0.1574233798832539 -0.16736758923494768
2931 -0.056678290405921726 0.039813394671572765 -0.0727126725749175
3668 -0.11103734659464547 -0.027154782996056274 0.05587523658243576
2417 -0.028438434531419324 0.02204172159508273 -0.18567117679729858
2245 -0.01688749936360081 0.0767759573303852 -0.040358410624066525
4562 0.06467737190490985 0.11594724914950491 0.0052297476858224785
2376 -0.029246956220614694 -0.036447819254700475 0.059619287013270954
2494 0.015904300282542975 -0.15130670346752573 0.0032045541789499435
4564 0.051712909969070964 -0.07144522944394975 -0.044848895582386604
6247 0.04619359449690067 0.04604286198795524 -0.14649417435397255
5255 -0.038337077555657406 -0.00565636438365219 0.008014804454274835
2258 0.03527780738583776 0.10166202170779752 0.02601438229646447
2315 0.03751403248988507 0.025253672860134867 -0.09049190157462242
3132 -0.09815809686546176 0.016467011759773588 -0.06599882123830289
2921 0.14839203087988764 -0.19217305470969856 -0.13102352327693803
3252 0.010232617543188795 0.06983010160088114 0.09470234783455275
2317 -0.0026824987630625664 0.04096889912290491 -0.0969346183719112
2231 -0.054832536582421224 -0.0199866612857362 -0.1004008684520413
3953 0.0014932078123369337 -0.011222621061201705 0.12841693246976565
5507 0.05110013702726116 -0.030671593354044922 -0.08035583781441079
4540 0.041705873227212864 -0.03952929791638401 0.05275561228834954
4632 -0.10974847489053699 0.07991860440755473 0.1510508758432071
5815 0.002558945085908635 0.05912947619057443 -0.026757562556448723
5644 -0.10224514848723737 -0.12921086832578058 0.007307909754980382
5480 0.0190217515056227 -0.07608727976497011 0.03188654044389176
2363 -0.13447216541899829 -0.0011589061427525762 -0.03308619985641786
3069 -0.06986984308573563 0.035713773993640646 0.015713504449978155
3230 -0.12164312862009556 0.1509399618718671 0.07215584050697975
2505 -0.050770199752652116 0.005074174735696448 -0.04880538400411394
3231 -0.089494747539374 0.10885216003827182 -0.0031098275731385946
5198 -0.05138243126318358 -0.046008434842090294 -0.017544091463804867
5179 0.04112358783751688 0.021242902493340883 -0.04997903834770661
3255 0.10438562095395208 -0.02951311992152626 0.05826897526662774
4179 0.1386092268455126 0.015549849133890351 0.09582731797683462
3535 0.1246949608635418 0.014107827637439632 -0.008726517924463054
3100 0.06286095164835107 -0.058718646677630666 0.03432563872474716
3747 -0.07271815539145575 -0.05411924618899855 -0.012409261539094272
6216 -0.014909042197452019 -0.026840894563569476 0.057784903390520816
6241 0.06307442697262028 0.00255268280498527 0.015858718607114485
6048 -0.08445319610899099 0.0977437057003623 -0.004290575463517181
2497 -0.03696196283481862 0.08301754748828037 0.021133105142651397
3246 -0.019524222156704726 -0.17344656889899784 0.030708735577153236
2518 -0.06613750532015153 0.00603777609952714 0.1961334887875064
3236 -0.0041563732296873435 -0.052319427588595105 -0.03142998229836284
3172 0.066946910289157 -0.027311623001883136 0.19487263021225248
5298 0.008337299895228991 0.1149993483801408 -0.05578342616323161
2546 -0.056609818591347255 -0.08666760363855347 0.1294839238354156
3618 -0.13591481948261372 0.015078925271594592 -0.034928289631378444
3744 0.03508534201282674 -0.06875594534081207 -0.03756706087831508
2913 -0.022976740131466247 -0.0418146541974493 0.004079262297060588
5872 -0.0778164983853421 0.0773707829018357 0.0016500148763066843
5273 -0.04480002700695023 0.07998089860061264 -0.06858613272007837
3243 0.00868337402765511 0.08121257217226018 -0.11548000897955359
3214 0.1512110252698155 0.09037424066031115 -0.07580609499985476
2313 -0.07429740860284045 -0.03164788977614672 0.0849176666229653
3248 -0.006769079588292429 0.1671791676505762 0.05345259661797654
3141 -0.10474736946085073 0.056683301710119 -0.021977536320256615
2388 -0.03353743936303867 -0.06658620627287468 -0.03036771091170828
4635 0.03492064053213507 0.10785209302225646 -0.019485689321519443
4164 -0.11679027936364092 -0.05830325082251864 -0.13926326997884134
3964 0.05254535286887731 0.08311130544681378 -0.009225850774591012
2374 0.05338822869273888 -0.07293814398587328 -0.06826782355395854
4513 -0.048115840587813416 0.0899840883341882 0.015399290145416139
3240 0.10045938251156619 0.1747710035083251 -0.035026493675484535
4791 -0.055026128417230466 -0.03101264551586206 -0.05304475454332616
5966 0.23684003327686956 0.006486988260971639 -0.04845952945294252
3038 0.06367501280904378 0.04881027522626147 -0.0529164306233803
3204 0.15397706604326544 0.030128840741121453 -0.11853585431533545
2962 0.014550790748093515 0.09232817809045375 -0.011117957793098938
5037 -0.10855712454004061 0.10541212893074316 0.04735816908110054
3229 -0.10975154467076279 0.1349931890130752 -0.1981980789350648
3620 -0.09438423283854039 -0.1444779298177077 -0.02547965194204259
2985 -0.04328872955893216 -0.002245720541182403 0.005538384470083337
5573 0.10811707437390827 0.017306159868110085 0.13924033390654347
4975 -0.03276075604461514 -0.1175172068838406 -0.060277039623919414
5671 -0.033721128393275915 -0.08266026868570887 -0.04204496872138565
6238 0.1334796031732801 -0.1668234011029734 -0.1400932235720809
5789 0.007804072351964748 -0.1143842229575868 0.07170268299892041
5662 0.002729591865596033 0.11722560922133955 0.06283604503124623
6144 -0.14810651165238342 0.18010390130411913 0.0444725577717581
2220 0.010674990704897054 -0.036834414901896276 -0.0011327777019811136
3151 -0.11254528242606876 0.11212530009277713 -0.0581264497444848
3140 0.0005493559791532494 0.013367387064827494 0.07592950169312533
5180 -0.02058573110466673 -0.0117505084719519 -0.12268360988921276
2470 0.0990316159119993 0.1855468756565345 -0.08175451087199882
3173 -0.04886910965265889 -0.1041464650941383 0.012265613989426095
4297 0.0661752935653378 -0.0005697507412500899 -0.055823954554361094
5238 -0.031005468006418874 0.11042457886615271 0.05955655235191349
5231 -0.13329312411376015 -0.014708414094810692 -0.003912619893377163
5654 -0.06612190633588953 -0.07662647848366431 0.003675343702633743
5754 0.11796706468108338 -0.011019570763041742 0.0686901587809975
3250 0.050666094138542075 0.05974915598692469 -0.164167306200752
2502 -0.0384168899304944 0.016985704922889144 0.019881268464386658
3153 -0.10755526494704346 -0.13417734820318455 0.1309724027626794
2206 0.002999287695992686 0.02275422994541183 0.15471929268025256
2274 0.06121927766742659 -0.19976381734466286 0.004117133621175545
4980 0.04401565983727814 0.02297747061174863 0.0003017918931031392
4100 -0.0005056705301354596 -0.016210180287840464 0.11693875916136574
5012 -0.08236258237744921 -0.13594178224782735 0.10220319572169435
4854 0.010723819649965055 0.1041501216322522 -0.1299234423494624
3622 -0.06418315444782485 0.07944403340681831 -0.05397793207889163
5405 0.07375609566095212 0.05731707934981704 0.05621252083142094
6171 0.13165723748687352 -0.08821842392625037 0.09948768228844898
5220 -0.06727012474539798 0.22620123723655033 -0.1274667617868279
6098 -0.10278731617224247 0.1216158069158443 -0.17803801136394454
6103 -0.03479502309095491 0.12248711516749707 0.0027592390121107795
5814 0.0656069369976922 0.052496556591088664 0.08567838089957257
802 -0.04593351228424547 -0.011941879196635155 -0.06341748937417614
5197 -0.001449722219452991 -0.040004393044269004 0.04261862985353107
3114 0.18051281458281002 0.10306047182792935 -0.015887307812946838
5088 -0.10331765931282416 -0.0938717766850164 0.006406936459885897
2944 0.06646598057645094 -0.08415083907768513 0.007943047764542388
1750 -0.05336455852694338 -0.182822158096886 -0.03043492409576439
3840 0.02454291711705828 -0.042810234539186726 -0.0017469314566078966
2320 -0.04270266301057661 -0.16222466350359652 -0.06882945123666834
3623 0.02533058927767166 0.04857447159434898 -0.08858543582698275
4792 -0.2089598965422882 0.11217880399666584 -0.06835640368257101
4415 0.05538734219823486 0.06608162075701489 -0.014595770700331917
4031 -0.03949717014127989 -0.03299427572749805 0.01570181677036025
6222 0.10194798994012855 0.2018106032711174 0.10180320170302704
6223 0.024741637222181277 0.03637611245431152 -0.018303922960904467
6057 0.1220719319676017 0.05883741722597412 -0.03407290033706343
4376 -0.00824046051673892 -0.004306682814506697 0.04232024028805223
2260 -0.011624795561223086 -0.03636322496374209 0.062284964395971476
2439 -0.040066065687575314 0.12774068041241143 -0.051134856056096245
2297 0.10249807768694644 -0.10745360607357515 0.05074675291529343
3201 -0.06030431453257126 0.09830719325513979 0.05735013402973053
2291 -0.17157284995967734 -0.057346058106601164 -0.1872779789056067
2935 -0.17366282836450977 -0.1875278484866764 -0.06231013078498973
5015 0.17060871334691352 -0.08055595908311518 0.08730789063145675
4480 0.01695182491023739 -0.028864756530031094 -0.039627252053154496
1039 0.05013903449746344 0.13025891284595423 -0.23395969138048778
5500 0.09918697432121694 0.15490026529883974 -0.021223934105971683
3404 -0.03250433137333654 -0.015748303925443474 0.03926088398654384
6052 -0.018698140161854008 -0.07449712722766523 -0.04700459937694886
6107 0.0635441351903269 -0.017390212230213226 0.03201606774775631
5955 -0.04787809189836703 0.011913180080280248 0.08845414424129282
3781 0.1163503482823259 0.01915429289307931 0.07275614569217004
1072 -0.026009863477962893 -0.04695975009543241 0.05411056731367224
2541 0.051838519863365976 0.059478897781211376 0.15044130308321785
2440 -0.010873076691287599 0.09707158957454572 -0.04951564309603828
3189 -0.056812769724695074 -0.11180897454876237 0.018222551815312724
3161 -0.029057891105842 0.04243647509085262 0.01161644191704234
2272 -0.19646146916029816 -0.0039871945755532694 -0.16012564159618317
5072 0.045415733448214105 0.033184768443262 -0.14448453846700057
3728 -0.1011394274282452 -0.11014771650827776 0.09515540827504826
2542 -0.018498324801711805 0.037877545309380034 0.1465475899360332
4186 0.03043413244003304 0.015821487175920874 0.038781077714224246
2988 0.15282006017040867 0.0063561365390442 0.17411196455767203
5695 0.08543605094060762 0.11933353295302616 0.03884128247965474
3049 0.0649147704842414 0.08358049571557015 -0.11739832165240376
2942 -0.06060857045497002 0.0026702432444345482 -0.023946131574819084
3055 -0.07755297911663805 0.014863058443586312 0.11844774428441911
3226 0.009748671176962617 0.11020113838445261 -0.006986325101917025
1055 0.011468332672495706 0.04071177290826141 -0.14352686150756525
4333 0.015202423704347618 -0.07287375818026696 -0.22311422385385266
2341 0.013473852896857024 -0.04386563832938015 -0.10993128057072199
5489 0.13299845785020062 0.09277921734881713 -0.11190826627340586
781 -0.09911799776185942 0.11163026810657223 -0.15058554100168636
5155 0.0030557951688310768 0.049214452496992564 0.04429398825385188
5714 -0.2163053639459126 -0.031539103990698134 -0.04758887430018826
4019 0.016357282549443946 -0.023031017242466763 0.07832659254015906
5688 -0.014395639672294944 0.05590923457330488 0.1661235869418649
5723 0.10537689764203738 0.00016864453145126745 -0.10138525152588415
5908 -0.07150566874009151 -0.01982009430556862 -0.022820566451459245
3103 -0.16044549619460768 0.14447958548611872 -0.1360630899167299
1757 0.015272415596518825 -0.008520515120194574 0.08881578687570052
2409 0.0677720121411802 -0.04798756752825753 -0.0013080005600419869
2453 0.07734619379751435 0.017822751020649497 -0.0106152874228861
1630 -0.022126482829993688 0.03363160786025346 0.08286439461239159
3028 0.1436567225046244 -0.07811166164903759 0.008888099119463972
3087 -0.11307678547922458 -0.04414407538819336 -0.03559387263253174
5222 -0.08288302118658941 0.13140302203726906 0.08259651698312838
2196 -0.026594097033765397 0.06610438643225072 0.11394370063368874
4041 0.10299389561905158 0.15444608748375205 0.1722772515964682
5692 0.13397309196286425 0.24187408601200397 0.03252489509568135
6155 -0.05803747690924611 -0.020679644175332593 -0.10085826484874111
5493 -0.009983863040219912 0.034127132265270366 0.14757319280511644
6141 -0.08071189720902147 -0.004065716590913643 -0.03246871055932695

Bonds

1 1 325 327
2 558 325 335
3 559 325 337
4 560 325 339
5 561 325 343
6 562 325 345
7 578 325 326
8 580 132 133
9 1 128 130
10 333 128 134
11 583 128 129
12 1 130 131
13 1 126 128
14 330 126 131
15 331 126 134
16 332 126 137
17 577 126 127
18 1 131 134
19 334 131 139
20 579 131 132
21 1 76 79
22 207 76 83
23 579 76 77
24 1 73 76
25 205 73 81
26 206 73 83
27 579 73 74
28 1 61 63
29 196 61 73
30 197 61 76
31 198 61 79
32 591 61 62
33 599 71 72
34 598 70 71
35 598 70 72
36 1 79 81
37 208 79 85
38 209 79 87
39 210 79 207
40 582 79 80
41 1 83 85
42 218 83 90
43 219 83 92
44 220 83 128
45 221 83 130
46 222 83 131
47 223 83 134
48 577 83 84
49 586 74 75
50 1 85 87
51 224 85 92
52 225 85 128
53 226 85 130
54 227 85 131
55 228 85 134
56 578 85 86
57 586 88 89
58 1 81 83
59 211 81 87
60 212 81 90
61 213 81 92
62 214 81 130
63 215 81 131
64 216 81 207
65 217 81 209
66 600 81 82
67 1 90 92
68 237 90 130
69 238 90 131
70 239 90 134
71 240 90 137
72 241 90 139
73 242 90 192
74 243 90 194
75 244 90 196
76 245 90 203
77 246 90 205
78 247 90 207
79 248 90 209
80 583 90 91
81 1 87 90
82 229 87 128
83 230 87 130
84 231 87 131
85 232 87 134
86 233 87 137
87 234 87 203
88 235 87 205
89 236 87 207
90 579 87 88
91 1 134 137
92 335 134 163
93 336 134 165
94 579 134 135
95 586 135 136
96 1 137 139
97 337 137 160
98 338 137 163
99 339 137 165
100 340 137 167
101 582 137 138
102 580 161 162
103 1 163 165
104 592 163 164
105 1 160 163
106 579 160 161
107 1 158 160
108 384 158 165
109 578 158 159
110 1 118 120
111 326 118 124
112 590 118 119
113 1 121 124
114 579 121 122
115 1 120 121
116 327 120 126
117 580 122 123
118 1 124 126
119 328 124 131
120 329 124 137
121 583 124 125
122 1 335 337
123 574 335 343
124 582 335 336
125 1 333 335
126 573 333 339
127 581 333 334
128 1 331 333
129 572 331 337
130 591 331 332
131 1 329 331
132 569 329 335
133 570 329 337
134 571 329 339
135 578 329 330
136 594 110 113
137 597 110 112
138 603 348 349
139 1 327 329
140 563 327 333
141 564 327 335
142 565 327 337
143 566 327 339
144 567 327 343
145 568 327 345
146 591 327 328
147 1 53 55
148 179 53 59
149 180 53 61
150 181 53 63
151 182 53 333
152 183 53 335
153 583 53 54
154 603 347 349
155 602 347 348
156 1 55 57
157 184 55 61
158 185 55 63
159 186 55 69
160 187 55 333
161 188 55 335
162 591 55 56
163 1 63 69
164 199 63 76
165 200 63 79
166 201 63 81
167 584 63 64
168 1 69 73
169 202 69 79
170 203 69 81
171 204 69 83
172 585 69 70
173 1 59 61
174 193 59 69
175 194 59 73
176 195 59 76
177 577 59 60
178 1 57 59
179 189 57 63
180 190 57 69
181 191 57 73
182 192 57 257
183 578 57 58
184 1 211 213
185 425 211 219
186 426 211 221
187 590 211 212
188 1 94 96
189 259 94 134
190 260 94 137
191 261 94 139
192 262 94 141
193 263 94 143
194 264 94 186
195 265 94 205
196 266 94 207
197 267 94 209
198 268 94 211
199 269 94 213
200 270 94 214
201 590 94 95
202 1 96 98
203 271 96 102
204 272 96 106
205 273 96 108
206 274 96 137
207 275 96 139
208 276 96 141
209 277 96 143
210 278 96 145
211 279 96 165
212 280 96 173
213 281 96 207
214 282 96 209
215 283 96 211
216 284 96 213
217 285 96 214
218 286 96 219
219 575 96 97
220 1 92 94
221 249 92 131
222 250 92 134
223 251 92 137
224 252 92 139
225 253 92 141
226 254 92 194
227 255 92 205
228 256 92 207
229 257 92 209
230 258 92 211
231 592 92 93
232 1 139 141
233 341 139 163
234 342 139 165
235 343 139 167
236 344 139 173
237 345 139 186
238 346 139 192
239 590 139 140
240 1 141 143
241 347 141 163
242 348 141 165
243 349 141 167
244 350 141 173
245 351 141 175
246 352 141 186
247 590 141 142
248 1 156 158
249 381 156 163
250 382 156 165
251 383 156 167
252 578 156 157
253 1 173 175
254 388 173 180
255 389 173 184
256 390 173 186
257 592 173 174
258 593 168 169
259 596 168 171
260 1 154 156
261 379 154 160
262 380 154 163
263 600 154 155
264 1 165 167
265 600 165 166
266 1 167 173
267 385 167 178
268 386 167 184
269 387 167 186
270 584 167 168
271 1 116 118
272 325 116 121
273 576 116 117
274 1 337 339
275 576 337 338
276 1 43 49
277 165 43 337
278 584 43 44
279 1 39 41
280 163 39 49
281 575 39 40
282 1 41 43
283 164 41 267
284 583 41 42
285 593 44 45
286 596 44 47
287 1 37 39
288 159 37 43
289 160 37 102
290 161 37 106
291 162 37 116
292 591 37 38
293 1 106 108
294 313 106 116
295 314 106 118
296 315 106 120
297 316 106 211
298 317 106 213
299 318 106 214
300 600 106 107
301 593 109 110
302 596 109 112
303 1 114 116
304 323 114 120
305 324 114 121
306 581 114 115
307 595 112 113
308 1 102 106
309 307 102 114
310 308 102 116
311 309 102 118
312 310 102 143
313 311 102 213
314 312 102 214
315 587 102 103
316 1 108 114
317 319 108 118
318 320 108 120
319 321 108 121
320 210 108 124
321 322 108 213
322 584 108 109
323 580 100 101
324 1 99 102
325 299 99 108
326 300 99 114
327 301 99 116
328 302 99 141
329 303 99 143
330 304 99 145
331 305 99 213
332 306 99 214
333 579 99 100
334 601 103 104
335 602 103 105
336 1 345 350
337 589 345 346
338 1 49 51
339 166 49 55
340 167 49 57
341 168 49 333
342 169 49 335
343 170 49 337
344 171 49 339
345 582 49 50
346 1 339 343
347 587 339 340
348 602 346 347
349 602 346 348
350 1 343 345
351 576 343 344
352 601 340 341
353 602 340 342
354 591 341 342
355 1 261 263
356 502 261 267
357 503 261 337
358 504 261 339
359 505 261 343
360 506 261 345
361 507 261 350
362 578 261 262
363 1 51 53
364 172 51 57
365 173 51 59
366 174 51 61
367 175 51 333
368 176 51 335
369 177 51 337
370 178 51 339
371 577 51 52
372 594 45 48
373 597 45 47
374 1 259 261
375 497 259 265
376 498 259 339
377 499 259 343
378 500 259 345
379 501 259 350
380 590 259 260
381 1 17 19
382 86 17 23
383 87 17 26
384 88 17 28
385 89 17 257
386 90 17 259
387 91 17 261
388 92 17 263
389 93 17 265
390 94 17 267
391 95 17 269
392 96 17 280
393 591 17 18
394 1 15 17
395 75 15 21
396 76 15 23
397 77 15 26
398 78 15 28
399 79 15 255
400 80 15 257
401 81 15 259
402 82 15 261
403 83 15 263
404 84 15 280
405 85 15 350
406 577 15 16
407 1 13 15
408 68 13 23
409 69 13 26
410 70 13 28
411 71 13 250
412 72 13 255
413 73 13 257
414 74 13 259
415 591 13 14
416 1 213 214
417 427 213 216
418 428 213 219
419 429 213 221
420 1 214 215
421 430 214 219
422 431 214 221
423 432 214 226
424 1 98 99
425 287 98 106
426 288 98 108
427 289 98 114
428 290 98 139
429 291 98 141
430 292 98 143
431 293 98 145
432 294 98 211
433 295 98 213
434 296 98 214
435 297 98 216
436 298 98 219
437 1 143 145
438 353 143 149
439 354 143 165
440 355 143 167
441 356 143 173
442 357 143 175
443 358 143 178
444 359 143 213
445 577 143 144
446 586 176 177
447 1 145 147
448 360 145 151
449 361 145 153
450 362 145 165
451 363 145 167
452 364 145 173
453 365 145 175
454 366 145 178
455 576 145 146
456 1 175 178
457 391 175 182
458 392 175 184
459 393 175 186
460 579 175 176
461 1 151 153
462 375 151 156
463 376 151 167
464 583 151 152
465 1 147 149
466 367 147 153
467 368 147 167
468 369 147 173
469 370 147 175
470 371 147 178
471 576 147 148
472 1 149 151
473 372 149 167
474 373 149 173
475 374 149 175
476 581 149 150
477 1 35 37
478 155 35 102
479 156 35 106
480 157 35 114
481 158 35 116
482 582 35 36
483 1 33 35
484 152 33 39
485 153 33 271
486 154 33 272
487 581 33 34
488 1 31 33
489 146 31 37
490 147 31 39
491 148 31 269
492 149 31 271
493 150 31 272
494 151 31 274
495 575 31 32
496 591 104 105
497 1 263 265
498 508 263 339
499 509 263 343
500 591 263 264
501 1 265 267
502 581 265 266
503 1 267 269
504 592 267 268
505 595 47 48
506 1 19 21
507 97 19 26
508 98 19 28
509 99 19 259
510 100 19 261
511 101 19 263
512 102 19 265
513 103 19 267
514 104 19 269
515 592 19 20
516 1 30 31
517 136 30 35
518 137 30 37
519 138 30 39
520 139 30 214
521 140 30 215
522 141 30 269
523 142 30 271
524 143 30 272
525 144 30 274
526 145 30 276
527 1 28 30
528 125 28 37
529 126 28 39
530 127 28 214
531 128 28 215
532 129 28 267
533 130 28 269
534 131 28 271
535 132 28 272
536 133 28 274
537 134 28 276
538 135 28 280
539 590 28 29
540 1 274 276
541 600 274 275
542 1 272 274
543 578 272 273
544 601 277 278
545 602 277 279
546 1 269 271
547 510 269 274
548 581 269 270
549 1 271 272
550 354 271 276
551 1 199 201
552 418 199 205
553 592 199 200
554 595 67 68
555 580 77 78
556 1 203 205
557 581 203 204
558 1 205 207
559 419 205 245
560 590 205 206
561 1 197 199
562 417 197 203
563 578 197 198
564 1 194 196
565 412 194 199
566 413 194 203
567 414 194 205
568 588 194 195
569 1 196 197
570 415 196 201
571 416 196 203
572 598 314 315
573 598 314 316
574 1 1 3
575 2 1 199
576 3 1 201
577 4 1 203
578 5 1 205
579 6 1 207
580 7 1 238
581 8 1 241
582 9 1 243
583 10 1 245
584 575 1 2
585 1 201 203
586 583 201 202
587 599 354 355
588 598 353 354
589 598 353 355
590 1 319 321
591 548 319 345
592 549 319 350
593 550 319 352
594 551 319 356
595 552 319 358
596 581 319 320
597 1 352 356
598 585 352 353
599 598 322 323
600 598 322 324
601 553 321 325
602 554 321 343
603 555 321 345
604 556 321 350
605 557 321 352
606 585 321 322
607 603 252 254
608 602 252 253
609 594 65 68
610 597 65 67
611 603 253 254
612 1 356 358
613 581 356 357
614 1 255 257
615 485 255 313
616 486 255 319
617 487 255 350
618 488 255 352
619 489 255 356
620 490 255 358
621 491 255 360
622 577 255 256
623 593 64 65
624 596 64 67
625 1 7 9
626 35 7 205
627 36 7 207
628 37 7 209
629 38 7 211
630 39 7 221
631 40 7 230
632 41 7 234
633 42 7 241
634 43 7 243
635 44 7 245
636 45 7 248
637 46 7 250
638 47 7 255
639 48 7 360
640 577 7 8
641 1 9 11
642 49 9 69
643 50 9 207
644 51 9 209
645 52 9 211
646 53 9 213
647 54 9 214
648 55 9 221
649 56 9 245
650 57 9 248
651 58 9 250
652 59 9 255
653 60 9 257
654 590 9 10
655 1 5 7
656 22 5 203
657 23 5 205
658 24 5 207
659 25 5 209
660 26 5 211
661 27 5 230
662 28 5 234
663 29 5 238
664 30 5 241
665 31 5 243
666 32 5 245
667 33 5 248
668 34 5 250
669 576 5 6
670 1 207 209
671 420 207 213
672 575 207 208
673 1 209 211
674 421 209 214
675 422 209 219
676 423 209 221
677 424 209 230
678 592 209 210
679 1 186 188
680 407 186 192
681 408 186 194
682 591 186 187
683 1 190 192
684 411 190 196
685 591 190 191
686 1 192 194
687 591 192 193
688 1 188 190
689 409 188 194
690 410 188 196
691 590 188 189
692 595 171 172
693 1 317 319
694 544 317 350
695 545 317 352
696 546 317 356
697 547 317 358
698 576 317 318
699 599 315 316
700 1 311 313
701 536 311 356
702 537 311 358
703 538 311 360
704 539 311 362
705 592 311 312
706 1 313 317
707 540 313 352
708 541 313 356
709 542 313 358
710 543 313 360
711 585 313 314
712 1 358 360
713 590 358 359
714 580 365 366
715 1 3 5
716 11 3 201
717 12 3 203
718 13 3 205
719 14 3 207
720 15 3 209
721 16 3 230
722 17 3 234
723 18 3 238
724 19 3 241
725 20 3 243
726 21 3 245
727 590 3 4
728 586 246 247
729 1 245 248
730 470 245 358
731 471 245 360
732 472 245 362
733 473 245 364
734 579 245 246
735 1 243 245
736 466 243 360
737 467 243 362
738 468 243 364
739 469 243 367
740 581 243 244
741 1 241 243
742 463 241 248
743 464 241 362
744 465 241 364
745 591 241 242
746 1 248 250
747 474 248 307
748 475 248 313
749 476 248 356
750 477 248 358
751 478 248 360
752 479 248 362
753 480 248 364
754 577 248 249
755 1 238 241
756 462 238 245
757 579 238 239
758 1 236 238
759 461 236 243
760 583 236 237
761 1 307 309
762 525 307 313
763 526 307 358
764 527 307 360
765 528 307 362
766 529 307 364
767 530 307 367
768 581 307 308
769 1 309 311
770 531 309 317
771 532 309 356
772 533 309 358
773 534 309 360
774 535 309 362
775 576 309 310
776 1 362 364
777 581 362 363
778 579 367 368
779 1 364 367
780 579 364 365
781 580 368 369
782 599 323 324
783 1 350 352
784 588 350 351
785 492 257 259
786 493 257 345
787 494 257 350
788 495 257 352
789 496 257 356
790 600 257 258
791 602 251 252
792 602 251 253
793 1 250 255
794 481 250 352
795 482 250 356
796 483 250 358
797 484 250 360
798 589 250 251
799 1 11 13
800 61 11 28
801 62 11 211
802 63 11 248
803 64 11 250
804 65 11 255
805 66 11 257
806 67 11 356
807 591 11 12
808 599 282 283
809 603 223 225
810 602 223 224
811 598 281 282
812 598 281 283
813 603 224 225
814 602 222 223
815 602 222 224
816 1 221 226
817 446 221 230
818 447 221 234
819 448 221 280
820 449 221 284
821 589 221 222
822 599 232 233
823 1 219 221
824 443 219 228
825 444 219 230
826 445 219 234
827 592 219 220
828 598 231 232
829 598 231 233
830 1 228 230
831 454 228 236
832 455 228 238
833 581 228 229
834 1 226 228
835 450 226 234
836 451 226 236
837 452 226 280
838 453 226 284
839 581 226 227
840 1 230 234
841 456 230 238
842 457 230 241
843 585 230 231
844 580 217 218
845 1 178 180
846 394 178 184
847 395 178 186
848 396 178 188
849 576 178 179
850 1 182 184
851 401 182 188
852 402 182 190
853 403 182 192
854 578 182 183
855 1 180 182
856 397 180 186
857 398 180 188
858 399 180 190
859 400 180 228
860 592 180 181
861 1 184 186
862 404 184 190
863 405 184 192
864 406 184 194
865 581 184 185
866 603 291 292
867 603 290 292
868 602 290 291
869 1 288 293
870 512 288 297
871 589 288 289
872 595 305 306
873 1 293 295
874 513 293 299
875 514 293 301
876 581 293 294
877 1 295 297
878 515 295 301
879 516 295 307
880 583 295 296
881 602 289 290
882 602 289 291
883 1 360 362
884 577 360 361
885 1 234 236
886 458 234 241
887 459 234 243
888 460 234 245
889 577 234 235
890 586 239 240
891 593 302 303
892 596 302 305
893 1 301 307
894 521 301 360
895 522 301 362
896 523 301 364
897 524 301 367
898 584 301 302
899 594 303 306
900 597 303 305
901 1 299 301
902 119 299 362
903 519 299 364
904 520 299 367
905 578 299 300
906 1 297 299
907 517 297 307
908 518 297 367
909 578 297 298
910 1 26 28
911 116 26 259
912 117 26 263
913 118 26 267
914 119 26 269
915 120 26 271
916 121 26 272
917 122 26 274
918 123 26 276
919 124 26 280
920 592 26 27
921 580 24 25
922 1 23 26
923 110 23 30
924 111 23 271
925 112 23 274
926 113 23 276
927 114 23 280
928 115 23 284
929 579 23 24
930 1 21 23
931 105 21 28
932 106 21 267
933 107 21 274
934 108 21 276
935 109 21 280
936 578 21 22
937 1 280 284
938 585 280 281
939 1 276 280
940 511 276 286
941 587 276 277
942 591 278 279
943 1 215 216
944 433 215 221
945 434 215 226
946 435 215 228
947 436 215 274
948 437 215 276
949 438 215 280
950 1 216 219
951 439 216 226
952 440 216 228
953 441 216 230
954 442 216 276
955 579 216 217
956 1 286 288
957 578 286 287
958 1 284 286
959 583 284 285
960 1 153 154
961 377 153 158
962 378 153 167
963 594 169 172
964 597 169 171

Angles

1 1 126 128 130
2 1 128 130 131
3 1 124 126 128
4 1 130 131 134
5 1 73 76 79
6 1 69 73 76
7 1 59 61 63
8 1 76 79 81
9 1 81 83 85
10 1 83 85 87
11 1 79 81 83
12 1 87 90 92
13 1 85 87 90
14 1 131 134 137
15 1 134 137 139
16 1 160 163 165
17 1 158 160 163
18 1 156 158 160
19 1 116 118 120
20 1 120 121 124
21 1 118 120 121
22 1 121 124 126
23 1 333 335 337
24 1 331 333 335
25 1 329 331 333
26 1 327 329 331
27 1 325 327 329
28 1 51 53 55
29 1 53 55 57
30 1 61 63 69
31 1 63 69 73
32 1 57 59 61
33 1 55 57 59
34 1 209 211 213
35 1 92 94 96
36 1 94 96 98
37 1 90 92 94
38 1 137 139 141
39 1 139 141 143
40 1 154 156 158
41 1 167 173 175
42 1 153 154 156
43 1 163 165 167
44 1 165 167 173
45 1 114 116 118
46 1 335 337 339
47 1 41 43 49
48 1 37 39 41
49 1 39 41 43
50 1 35 37 39
51 1 102 106 108
52 1 108 114 116
53 1 99 102 106
54 1 106 108 114
55 1 98 99 102
56 1 343 345 350
57 1 43 49 51
58 1 337 339 343
59 1 339 343 345
60 1 259 261 263
61 1 49 51 53
62 1 15 17 19
63 1 13 15 17
64 1 11 13 15
65 1 211 213 214
66 1 213 214 215
67 1 96 98 99
68 1 141 143 145
69 1 143 145 147
70 1 173 175 178
71 1 149 151 153
72 1 145 147 149
73 1 147 149 151
74 1 33 35 37
75 1 31 33 35
76 1 30 31 33
77 1 261 263 265
78 1 263 265 267
79 1 265 267 269
80 1 17 19 21
81 1 28 30 31
82 1 26 28 30
83 1 272 274 276
84 1 271 272 274
85 1 267 269 271
86 1 269 271 272
87 1 197 199 201
88 1 201 203 205
89 1 203 205 207
90 1 196 197 199
91 1 192 194 196
92 1 194 196 197
93 1 199 201 203
94 1 317 319 321
95 1 350 352 356
96 1 352 356 358
97 1 250 255 257
98 1 5 7 9
99 1 7 9 11
100 1 3 5 7
101 1 205 207 209
102 1 207 209 211
103 1 184 186 188
104 1 188 190 192
105 1 190 192 194
106 1 186 188 190
107 1 313 317 319
108 1 309 311 313
109 1 311 313 317
110 1 356 358 360
111 1 1 3 5
112 1 243 245 248
113 1 241 243 245
114 1 238 241 243
115 1 245 248 250
116 1 236 238 241
117 1 234 236 238
118 1 301 307 309
119 1 307 309 311
120 1 360 362 364
121 1 362 364 367
122 1 345 350 352
123 1 248 250 255
124 1 9 11 13
125 1 219 221 226
126 1 216 219 221
127 1 226 228 230
128 1 221 226 228
129 1 228 230 234
130 1 175 178 180
131 1 180 182 184
132 1 178 180 182
133 1 182 184 186
134 1 286 288 293
135 1 288 293 295
136 1 293 295 297
137 1 358 360 362
138 1 230 234 236
139 1 299 301 307
140 1 297 299 301
141 1 295 297 299
142 1 23 26 28
143 1 21 23 26
144 1 19 21 23
145 1 276 280 284
146 1 274 276 280
147 1 214 215 216
148 1 215 216 219
149 1 284 286 288
150 1 280 284 286
151 1 151 153 154

Dihedrals

1 2 349 347 348 346
2 1 113 112 110 109
3 1 48 47 45 44
4 1 68 67 65 64
5 2 254 252 253 251
6 1 172 171 169 168
7 2 225 223 224 222
8 2 292 290 291 289
9 1 306 305 303 302
