LAMMPS data file via write_data, version 7 Feb 2024, timestep = 3000, units = lj

2722 atoms
20 atom types
344 bonds
223 bond types
54 angles
5 angle types
14 dihedrals
3 dihedral types

0 96.6666666667 xlo xhi
0 58 ylo yhi
0 58 zlo zhi

Masses

1 72
2 72
3 72
4 54
5 36
6 36
7 36
8 54
9 54
10 54
11 54
12 72
13 54
14 36
15 54
16 54
17 72
18 36
19 72
20 36

Atoms # full

15191 0 19 0 7.551806035781002 0.8985035879440207 4.933593925885963 0 1 0
17743 0 19 0 4.678108898346241 1.6109621650839496 0.7684431282226187 0 1 0
17106 0 19 0 16.063602045370075 6.699707392584324 4.824593744324188 0 0 0
17268 0 19 0 14.156397865089515 2.402594291638531 3.868704244130235 0 0 0
17492 0 19 0 9.276248822500763 4.529228629099927 2.618265264629731 0 0 0
16391 0 19 0 19.367806880845727 2.752233683459714 1.2440730954529136 0 0 0
13286 0 19 0 19.717962760367836 4.4238598601284655 6.394715883923942 0 0 0
16835 0 19 0 23.521675900911998 0.017447297270008495 1.2479053334838386 0 0 0
16427 0 19 0 24.219310472430774 3.1656362711236663 5.354732794274934 0 0 0
12679 0 19 0 27.29149568791019 6.085327397195654 3.225272330244429 0 0 1
280 156 19 0 31.468056916271127 5.50833666892811 6.471761223177138 0 0 0
177 53 19 0 28.599602671093486 0.5282596583688663 4.218170473037534 0 0 0
17552 0 19 0 4.743164951687998 7.4773572283776515 3.98133738357109 0 1 0
17715 0 19 0 6.419789221999401 12.826472509923137 0.1665710194902482 0 0 1
17731 0 19 0 9.173631860319295 9.71121721380742 3.677562654089032 0 0 0
16987 0 19 0 11.17798647805975 13.62751201263989 6.603156948860912 0 0 0
214 90 19 0 15.386499174495713 11.384763484132797 3.906850549098544 0 0 0
17666 0 19 0 11.78759268517466 13.735100123761097 0.9958303482068053 0 0 1
17176 0 19 0 13.369923861410518 7.596221355713927 1.0566534695054084 0 0 0
16926 0 19 0 22.813972882717362 7.902834766993086 4.129687670523934 0 0 0
17304 0 19 0 20.95512109123084 11.146037074934359 6.713190299322165 0 0 1
17000 0 19 0 21.268302322695664 12.337077407499889 1.6367344855766417 0 0 1
16161 0 19 0 18.47947941431642 7.758933934227162 0.9081051007382951 0 1 0
16123 0 19 0 25.741722262108127 12.005818860192736 5.4200594598616725 0 0 0
15582 0 19 0 30.35235522083215 10.081445324996544 3.619958176703102 0 0 0
1151 1027 19 0 26.797747755596415 13.958747670326373 0.7413837186707306 0 0 1
17644 0 19 0 7.284422610246494 15.338071141385523 4.563036640793502 0 0 0
17335 0 19 0 14.58784486030246 17.026674724677612 4.613289974573236 0 0 0
17187 0 19 0 10.668474653122173 18.95815365365777 2.93201437065227 0 0 0
361 237 19 0 23.130995883905275 16.262606311367104 4.076817031498285 0 0 0
11072 0 19 0 18.11626880145193 15.634247512390509 1.6929913118812159 0 0 1
15292 0 19 0 17.06351631668821 20.66083501080481 3.877685241650077 0 0 0
16210 0 19 0 22.44407508327869 21.252806756761412 3.2442697602223753 0 0 0
15444 0 19 0 18.931222872231395 16.437124327757 6.772956024162228 0 0 0
14917 0 19 0 29.280381508222572 15.07398953992494 4.657856566890042 0 0 0
14044 0 19 0 27.00178243241958 18.741986452156837 1.952274143077699 0 0 0
1221 1097 19 0 31.38166446338085 20.161233231640477 2.4639750959927387 0 0 1
10450 0 19 0 31.59971364723227 15.697147057328722 0.48167715714323645 0 0 0
16656 0 19 0 12.579257103801828 22.569181810522846 6.204388513057376 0 0 1
16305 0 19 0 10.452274889941355 26.53212983373288 3.5953464211968584 0 0 1
16255 0 19 0 15.768694200900727 26.616907339128126 4.492433434390785 0 0 0
17277 0 19 0 13.36953340239125 23.59049438899342 1.1564550078906832 0 0 1
1639 1515 20 1 22.979922640995433 25.302159716280148 3.4958093728533637 0 0 0
185 61 19 0 19.650781985873856 23.892226599026483 6.576516399619837 0 0 0
15455 0 19 0 19.504874633330086 24.62773803612088 1.1884640314899517 0 0 1
1488 1364 19 0 24.246249923794824 27.056146622037822 0.1666181593443046 0 0 1
248 124 19 0 26.978163241438555 23.824527503058242 2.9398411029448837 0 0 0
11459 0 19 0 25.63933587790464 28.3704287971389 5.048838586017691 0 0 0
343 219 19 0 24.666099413528585 24.337666477178708 7.191294972657114 0 0 0
135 11 19 0 29.181011528955885 28.301170898197803 1.6785421207394167 0 0 0
17416 0 19 0 4.400480299333326 5.14759644706652 9.81488418896853 0 0 0
17604 0 19 0 6.2136156887710525 0.5160539068607183 11.882467068824084 0 1 0
13971 0 19 0 11.45298534220268 0.29001795504912947 8.055249867088849 0 1 0
17737 0 19 0 8.468104834481553 5.506563933745161 7.263904886419089 0 0 0
16887 0 19 0 10.314404059783756 2.7913384986556022 11.962118924202825 0 0 0
15226 0 19 0 13.917923726166169 4.47312448511905 9.09530515929416 0 1 0
12650 0 19 0 14.777101475924612 6.753790858393014 13.97396048948579 0 0 0
13942 0 19 0 14.776876965254298 0.671849987648637 12.70897851708386 0 0 1
15402 0 19 0 16.599332290995175 0.6144151838011997 8.350804685302315 0 1 0
16498 0 19 0 23.99466842475577 0.8786106685248645 9.759234990088824 0 0 0
16881 0 19 0 19.181366087517894 3.6200048653338395 11.953978642728446 0 0 0
15642 0 19 0 21.492298175836126 7.225142348705968 10.134288299252544 0 0 0
17209 0 19 0 26.115385427857703 7.0526014352121535 7.871699551326574 0 0 0
14058 0 19 0 30.831575452006767 0.7085543564931512 12.425461300298348 0 1 0
16775 0 19 0 28.29489807278842 2.553197243874368 8.708747871420433 0 0 0
16341 0 19 0 30.853815216299846 5.909266493962563 11.589137417170926 0 0 0
13184 0 19 0 25.96751413411167 5.002001287128131 12.45675149670293 0 1 0
17710 0 19 0 7.407008182970044 10.645151870186375 8.138146901342877 0 0 0
17542 0 19 0 10.031763895657805 7.740453566263329 12.071097724654255 0 0 0
17607 0 19 0 12.589864376388638 9.025511831021657 7.411784563612733 0 0 0
17566 0 19 0 15.962924959051763 13.633762262291734 9.148205761097529 0 0 0
17721 0 19 0 15.655558326995893 11.682548159908883 14.23140282335803 0 0 0
17632 0 19 0 11.52243081201969 12.292724370046672 11.419330027653158 0 0 0
15061 0 19 0 16.80740927656101 8.929890419320968 10.035188936803287 0 0 0
15914 0 19 0 20.976071868332976 11.677031976449738 12.112369798377827 0 0 0
17168 0 19 0 29.810599626665162 10.18392703846338 8.498828493390597 0 0 0
17020 0 19 0 25.590319860863467 11.02055191862329 10.719680750931104 0 0 0
17720 0 19 0 6.575837976707167 15.338328444911724 10.162732657648139 0 0 0
17738 0 19 0 6.032492242494479 20.573498323915395 10.065909605970115 0 0 0
17751 0 19 0 10.750220260868012 18.68552487169398 8.097564463921678 0 0 0
16925 0 19 0 9.248179308954454 18.057465360215893 13.12878081406031 0 0 0
16327 0 19 0 14.11729050839195 16.91686455769891 12.744052685424508 0 0 0
17336 0 19 0 15.807454258878272 19.99261070658687 8.726617135290377 0 0 0
1056 932 19 0 22.84360718590662 15.174236997132915 9.133856606350992 0 0 1
16995 0 19 0 18.997237319159108 16.309056178595 12.17532165014604 0 0 0
17485 0 19 0 20.563043052543154 20.06704742890841 9.709585435150956 0 0 0
13461 0 19 0 24.799574811998788 19.604063026018295 7.398325780879135 0 0 0
352 228 19 0 28.058748566533446 15.386187469594136 9.440035939418836 0 0 0
11585 0 19 0 29.752903690562214 19.900444115327147 7.633946649140833 0 0 1
136 12 19 0 29.635710667849775 18.47087220027659 12.699969468014952 0 0 0
5254 0 19 0 24.366271383812787 19.144143351156547 12.568998211395888 0 0 0
17223 0 19 0 11.825286648620732 22.591111472103854 11.03312757742525 0 0 0
14103 0 19 0 8.097797551692112 24.385920624616094 7.78524966008268 0 0 0
16983 0 19 0 12.110753062253416 27.22284324648808 8.626494513116787 0 0 0
17586 0 19 0 13.422766085137237 26.101308186275944 14.14231022237264 0 0 0
13804 0 19 0 17.744698866366853 22.057297428140824 14.249840673727174 0 0 0
16814 0 19 0 16.50397845147075 24.42726293987844 9.99415978512842 0 0 0
16730 0 19 0 21.017782613646865 28.06847156446564 8.691030887041604 0 0 0
13988 0 19 0 22.44939953167203 24.14004736560006 11.795835176494574 0 0 0
15999 0 19 0 18.56495476032378 27.284371330710027 13.656216949490862 0 0 0
150 26 19 0 32.093466835752984 22.45341639887082 11.05845037189588 0 0 0
227 103 19 0 29.656061584389555 24.938468351747808 7.5923263479982666 0 0 0
157 33 19 0 27.253487576825485 23.00703941500035 11.396455768044609 0 0 0
467 343 19 0 30.785771298815742 28.14172808269073 12.319943649804541 0 0 0
171 47 19 0 25.913927117241 27.947630675100452 10.53355460147131 0 0 0
16568 0 19 0 8.25065023229451 4.696470073934893 15.679888355831284 0 0 0
17504 0 19 0 8.443880997440985 1.4409688550702655 19.84597633304947 0 0 0
16286 0 19 0 12.54884100059186 4.756515963667518 18.50733283466601 0 1 0
16248 0 19 0 14.23889538012474 0.6894842589570152 20.025627830015466 0 1 0
16786 0 19 0 17.25922261578496 3.7930407647163045 17.11911443352781 0 0 0
14288 0 19 0 22.614426977353286 1.9317034663151158 15.759276674374437 0 1 0
15311 0 19 0 21.1373241033374 4.827994917213634 19.602716098408713 0 1 0
14862 0 19 0 24.73354853181961 0.8666842687089271 20.131881188650464 0 1 0
11921 0 19 0 25.540886122461583 6.387230379790499 18.905994176403073 0 1 0
806 682 19 0 29.067382973322346 3.919896007976146 15.997336124194575 0 1 0
359 235 19 0 29.605167964204888 2.3795523934040124 21.082263600553862 0 0 0
836 712 19 0 30.129557052407087 7.131313753463695 20.028299551298915 0 1 0
17145 0 19 0 7.841044926744242 7.528366116022286 19.77142913607859 0 0 0
17688 0 19 0 7.115413645119728 11.133773379391258 14.579763944911459 0 0 0
17694 0 19 0 8.98244134731803 12.350086522029004 20.03236151244816 0 0 0
15869 0 19 0 11.882321772846835 9.66918450652326 16.62779728563268 0 0 0
17674 0 19 0 14.917246853459876 13.090588064086404 19.101246606949207 0 0 0
17063 0 19 0 16.538084829843893 8.574554194742413 19.164682521373624 0 0 0
16637 0 19 0 19.651784098373756 7.596769347102383 15.295377638127036 0 0 0
15711 0 19 0 19.72260641718025 13.61845244163115 17.12150187254417 0 0 0
14253 0 19 0 21.39492707842598 9.918946836660652 19.987641684758067 0 0 0
5025 0 19 0 28.774389805210607 13.66275363288436 14.513310211092675 0 0 0
11099 0 19 0 24.281010053076226 8.868876380299136 15.086027409318124 0 0 0
14981 0 19 0 28.892109144107813 8.775674316573623 15.50370703161004 0 0 0
16448 0 19 0 26.455351114825763 12.573560549232644 18.244817233317995 0 0 0
12072 0 19 0 32.16374802113181 11.926807810986027 17.42263654644999 0 0 0
264 140 19 0 30.034930629251196 11.438124307611544 21.6368890703994 0 0 0
16433 0 19 0 5.500145154901121 16.570044337952943 19.22221729091418 0 0 0
14729 0 19 0 10.919263813631467 14.757602544555633 15.910966942254376 0 0 0
17750 0 19 0 8.544828722223315 20.479503235782015 19.43738191500444 0 0 0
17201 0 19 0 12.790159429106193 20.747787230064972 16.26625369847936 0 0 0
14791 0 19 0 13.129026205803365 18.527767962952744 21.215959483817183 0 0 0
16864 0 19 0 23.755775432440423 14.918162013634236 14.698572367413076 0 0 0
14998 0 19 0 23.088464558251648 16.495167647028218 19.58677685559485 0 0 0
16915 0 19 0 16.743643794379384 17.333366470706466 16.683462864733162 0 0 0
11466 0 19 0 18.316614700021074 16.74960425059939 21.323042469894713 0 0 0
13240 0 19 0 21.378742831325912 19.40391624383663 16.131261457022948 0 0 0
10538 0 19 0 17.010488559786875 21.311604647850515 19.58860789415253 0 0 0
14470 0 19 0 21.703305387713595 20.96394352522281 20.50567363304269 0 0 0
16366 0 19 0 30.498691751868762 15.701368447690347 19.434249413572367 0 0 0
11431 0 19 0 27.167120494785863 18.394400079506283 16.758694205466426 0 0 0
10964 0 19 0 28.020850688443605 20.747413319532086 21.297493285395532 0 0 0
16521 0 19 0 6.487925795816241 24.399764443197384 21.200340338079315 0 0 0
16993 0 19 0 8.60291579005099 25.366410387410884 16.76599271819447 0 0 0
16844 0 19 0 12.382034479055097 23.901405628706776 20.33912496149806 0 0 0
17726 0 19 0 10.976006904236682 28.643119649875572 19.559155876287793 0 0 0
16239 0 19 0 16.090575727314096 27.170114485028968 18.418172200324122 0 0 0
461 337 19 0 23.480187404540793 27.98452952026226 14.601690468249007 0 0 0
16602 0 19 0 20.254703184024006 24.739524336900192 18.18516614326962 0 0 0
400 276 19 0 29.887120533429268 23.393750298182116 15.620729548559964 0 0 0
191 67 19 0 28.09838799177213 27.969048039302447 16.62750610116129 0 0 0
15591 0 19 0 25.001865509164276 23.19045596455032 15.962247191656456 0 0 0
363 239 19 0 29.771797901074407 25.08952632761094 20.709405673378928 0 0 0
17609 0 19 0 7.818427086606065 3.81777065951439 27.31996684033951 0 0 0
16454 0 19 0 11.55764453136607 3.8674551462066655 23.125256452791724 0 0 0
17717 0 19 0 12.922931407614886 3.1281579756896667 28.18848536023211 0 1 0
16105 0 19 0 15.212645045255929 0.828637240177152 24.857678126820637 0 0 0
17042 0 19 0 20.73781095821424 1.639893914849986 23.928884700837582 0 1 0
14234 0 19 0 16.873284793044984 5.053119674354249 22.44050888245854 0 0 0
16502 0 19 0 18.344013036845848 3.745739802575026 28.040174194526294 0 1 0
13783 0 19 0 24.775046012837112 4.663107334976539 23.099041003895174 0 0 0
790 666 19 0 31.8815495451988 1.4457128732652862 26.042663542036205 0 1 0
330 206 19 0 27.132890784457125 3.0041641829742622 27.493300630529454 0 0 0
722 598 19 0 29.174471531059663 6.9690880919634095 24.787572045306614 0 1 0
17487 0 19 0 15.659115254997028 7.996820958554241 26.200949389772063 0 0 0
17567 0 19 0 10.791414350194366 7.595954794919092 27.674009619071963 0 0 0
17606 0 19 0 8.891370839706076 12.075205863641793 25.059125518761427 0 0 0
16546 0 19 0 13.702511729271963 12.100568432011151 28.033521355170393 0 0 0
17247 0 19 0 13.183944342602736 14.204881188617367 23.39249902303035 0 0 0
17744 0 19 0 12.622323248500363 9.205480779330713 22.354441473028494 0 0 0
15318 0 19 0 20.59808205704535 7.447848163316138 24.307999040029436 0 0 0
16246 0 19 0 17.73179285702275 11.803393311672815 23.17529591903395 0 0 0
17400 0 19 0 18.652482585857182 11.698511945399273 28.377114698014285 0 0 0
14510 0 19 0 23.64667669178569 11.92485631832997 28.347627196648364 0 0 0
11052 0 19 0 22.528073516180854 13.097404410557091 23.42943135374404 0 0 0
14024 0 19 0 24.324487535901234 7.535197281539508 27.53638649637475 0 0 0
1130 1006 19 0 25.513886383725367 9.465481385086234 22.53727131664675 0 0 0
10098 0 19 0 28.4450380876988 11.372572550640433 26.629948577748507 0 1 0
17672 0 19 0 7.253795502984616 16.43231828926691 27.716631923274605 0 0 0
15682 0 19 0 12.295980722753997 17.62514372642552 26.841393366724148 0 0 0
16217 0 19 0 9.788043523722422 21.263897448656742 24.523313164411935 0 0 0
16991 0 19 0 8.546813560383626 16.765470223885153 23.08095755640577 0 0 0
17356 0 19 0 15.843566709154338 21.261778686432617 24.11237358220952 0 0 0
16389 0 19 0 17.043559592231276 16.445063557491974 26.214871837069012 0 0 0
16599 0 19 0 21.714007274754515 17.824845995478814 24.420551857451933 0 0 0
353 229 19 0 26.801146563835108 15.754882211829669 23.459829451559866 0 0 0
160 36 19 0 29.946698477318765 19.08657777325548 26.43518939917962 0 0 0
13625 0 19 0 25.43271958874133 17.188653040845434 28.043792996967273 0 0 0
439 315 19 0 25.558053435496696 21.083587447931713 25.504531299326743 0 0 0
17563 0 19 0 5.091609711983241 28.557805170133317 25.05662810169672 0 0 0
17394 0 19 0 7.689921435325486 24.384168815072464 27.38250279179159 0 0 0
13912 0 19 0 13.2253637720787 24.711187383992723 28.23279776085943 0 0 0
15528 0 19 0 10.91262294282384 26.931157574885948 24.71493701085206 0 0 0
16479 0 19 0 16.017778458319093 26.249920608557712 23.371016434947766 0 0 0
15254 0 19 0 20.459730086572964 22.64781265141039 24.859961117472263 0 0 0
14931 0 19 0 21.034194646663057 27.915493653192613 22.87827857095614 0 0 0
403 279 19 0 18.230410923914807 25.290026178644524 28.47518774561432 0 0 0
12293 0 19 0 23.31736358753431 26.400390946037195 26.86515131557975 0 0 0
14612 0 19 0 24.868568556130917 24.34967353953154 22.262546751036897 0 0 0
304 180 19 0 30.722401103447098 23.82259482136951 25.403553127918805 0 0 0
144 20 19 0 28.15859804395123 27.455685748865804 27.215946411145513 0 0 0
17712 0 19 0 11.375753567559157 5.7076923601230956 33.30759414456916 0 0 0
15615 0 19 0 15.508882242400182 5.817932256306708 36.00586965753115 0 0 0
17590 0 19 0 15.494917616878109 7.178545651790925 30.921042010206513 0 0 0
17286 0 19 0 13.932745678177932 1.2971135977940975 33.81167646798184 0 1 0
17742 0 19 0 8.142375166696553 1.7671861008155543 33.73856888289843 0 1 0
9863 0 19 0 18.817708083954543 3.1557574294423314 33.28894065027765 0 1 0
1812 0 19 0 22.775976324408468 0.6639283686548659 35.0869690672534 0 1 0
14520 0 19 0 21.943987831236722 6.276525087413587 35.508724241380854 0 0 0
15200 0 19 0 22.067844000791787 0.9147729199456333 29.315558870694264 0 1 0
12838 0 19 0 24.498831462088447 4.203556138265808 31.81471363231685 0 1 0
12004 0 19 0 28.536111929459004 4.89893971926219 34.59787358346576 0 0 0
860 736 19 0 30.551897785356964 1.8292014511373387 30.854998713994213 0 1 0
14925 0 19 0 27.450202496605343 0.33440046247239175 35.73580162920306 0 1 0
17697 0 19 0 7.6795360092570135 10.934177834708484 32.647146102988856 0 1 0
17660 0 19 0 13.147078952483751 10.77944224521882 33.33001316498782 0 0 0
14028 0 19 0 20.700471115831274 7.52118448052423 30.66860099072326 0 0 0
9774 0 19 0 21.57079943538084 12.753346367278851 32.539216314087064 0 0 0
15735 0 19 0 18.280954766146664 9.89883857652247 34.293314805272146 0 0 0
263 139 19 0 28.75823352230698 7.338612791527203 29.94218530742901 0 0 0
17261 0 19 0 25.029056778182024 9.105418531190715 32.75051988069678 0 0 0
1492 1368 19 0 29.80946180489285 9.7520732435204 34.498699999697095 0 1 0
199 75 19 0 27.58901808638241 13.565280350085313 31.015786443303103 0 0 0
1132 1008 19 0 25.129860600017896 13.236920902184016 35.79211987052077 0 0 0
10258 0 19 0 31.947413164826582 10.852796699229916 30.393444896439167 0 0 0
17745 0 19 0 7.408520037406722 20.330958742702535 30.65393373239794 0 0 0
17412 0 19 0 11.358646709671607 15.157299280647347 31.44716738809582 0 0 0
17682 0 19 0 14.914161999394102 18.173863914483817 34.896656618988054 0 0 0
16378 0 19 0 12.417821519837451 20.65440694314716 31.37019309973998 0 0 0
16229 0 19 0 9.67098733433403 18.526487445452908 35.30931779253795 0 0 0
17580 0 19 0 16.73844030126069 14.774333790036271 31.310158935952565 0 0 0
16245 0 19 0 19.44483024592806 16.75186956780723 35.01959588855525 0 0 0
10713 0 19 0 20.82347672352134 21.646733901300948 33.69792958718585 0 0 0
13356 0 19 0 20.925812020371385 16.242900579481425 29.225844633575583 0 0 0
8641 0 19 0 22.721424714261985 20.837312365696487 29.288701688302453 0 0 0
17146 0 19 0 17.36893679033209 20.237400875859063 30.054048671263903 0 0 0
1248 1124 19 0 24.196097152039634 18.144969995789246 33.12292734221939 0 0 0
453 329 19 0 31.662598160969427 14.86667882678996 34.28604602373402 0 0 0
1077 953 19 0 28.640830974015856 19.29733348500536 31.854124952257873 0 0 0
1226 1102 19 0 32.094070206024675 20.262009908456083 34.92312504900201 0 0 0
17588 0 19 0 6.131796128305666 28.55350462409388 33.90271151353238 0 0 0
16615 0 19 0 9.86212241001554 25.220255160945335 31.89144857163032 0 0 0
15374 0 19 0 14.944095127597715 27.695212655321885 36.105223969831876 0 0 0
300 176 19 0 16.060186378932148 23.90551613489531 32.80211998119577 0 0 0
392 268 19 0 19.585780823650907 25.870278974903687 36.1779697775637 0 0 0
303 179 19 0 21.885383012638364 25.93540066517551 31.79608126948294 0 0 0
13279 0 19 0 23.30586176875451 28.545314929619323 35.928015638051434 0 0 0
1205 1081 19 0 25.4239276960877 22.965332625033923 34.38696669756254 0 0 0
1225 1101 19 0 29.921503685744298 28.581843927698557 32.041581390957944 0 0 0
159 35 19 0 30.02050734129044 24.105192000407683 33.68132772476629 0 0 0
394 270 19 0 26.703146715025404 23.30331925677921 29.671035075526824 0 0 0
17486 0 19 0 14.773466270359151 4.687185479459036 41.28987598457854 0 0 0
16457 0 19 0 11.081091647879003 3.332576478308145 37.889028017993304 0 0 -1
17446 0 19 0 9.119201942890447 7.011338409066313 42.17950569390431 0 0 0
15943 0 19 0 19.050378419956836 3.639382532928913 38.226738220290144 0 1 0
14555 0 19 0 21.30569179511459 4.499040228249459 43.20473228862294 0 0 0
17740 0 19 0 17.164867534643957 0.7718626881684546 42.97119527343624 0 0 0
1538 1414 19 0 32.12941508315243 6.983644705812292 37.740511696357686 0 1 0
1247 1123 19 0 24.209190875304447 3.780364846721898 39.0130227804301 0 0 0
9278 0 19 0 28.967373110665495 3.7701718090866114 39.502831887168334 0 1 0
1503 1379 19 0 31.253300963883444 0.6318576968492181 43.439790288326336 0 1 0
17550 0 19 0 10.265870631310573 12.736718723580369 37.3659287621713 0 0 0
15569 0 19 0 15.79237676211229 13.8265119025078 36.78818056226155 0 0 0
14213 0 19 0 11.870928275993819 8.12119189903245 38.40081012620055 0 0 0
17317 0 19 0 14.981908960487823 13.179304917944512 41.74557982213005 0 0 0
16843 0 19 0 10.270477709551725 13.088505674361654 42.7774449959861 0 0 0
1078 954 19 0 21.850318920072315 8.426267376516419 39.835385799210584 0 0 0
17122 0 19 0 17.089832528924358 9.326723121437148 39.246119965139215 0 0 0
1184 1060 19 0 20.64855694054866 12.678436691156511 37.831489666341746 0 0 0
17236 0 19 0 20.22476724468956 12.387467022268934 42.65511688272563 0 0 0
1641 1517 20 1 31.815564015843428 14.388233580908368 41.988003905417365 0 0 0
14803 0 19 0 26.43901371817579 7.821752229791078 42.79722463385957 0 0 0
147 23 19 0 26.35790735617237 8.904040749998558 37.93719859508109 0 0 0
1088 964 19 0 29.938524045540195 13.300213109685899 38.25214387120398 0 0 0
1094 970 19 0 30.683909064384682 10.466879053936454 42.09715785093344 0 0 0
210 86 19 0 25.252629514920674 12.95834872429577 41.10178316937928 0 0 0
16397 0 19 0 7.242931430014081 16.31765485618822 39.65448774698974 0 0 0
17457 0 19 0 12.615826479123506 17.285195436634417 39.24874551527788 0 0 0
14660 0 19 0 14.865365309645531 20.52309367995489 41.98011610618498 0 0 0
1267 1143 19 0 17.96256744422693 21.173054204165524 37.48176594561668 0 0 0
13744 0 19 0 22.999740911558845 16.74150417594748 38.58728674095937 0 0 0
16992 0 19 0 18.011829608181188 16.68632909055964 40.509855171979844 0 0 0
14122 0 19 0 20.59547166569042 20.22962441001117 42.237799628355816 0 0 0
13119 0 19 0 27.93421205479985 17.750593357415084 36.4466807992865 0 0 0
1157 1033 19 0 28.055871043261806 17.30772751723934 41.197329491865744 0 0 0
1147 1023 19 0 30.658704629811865 21.433729865215053 42.97629727449412 0 0 0
17298 0 19 0 12.936512913575369 22.727918562297255 36.69191824896478 0 0 0
15993 0 19 0 8.56641699803077 21.982169964463775 39.51947905447256 0 0 0
17716 0 19 0 9.578769416130866 27.167000263062086 37.04962955354879 0 0 0
13167 0 19 0 12.517863567890634 24.68897944025226 42.02536231064358 0 0 0
154 30 19 0 22.86277955779137 22.194746331395788 38.66970295435738 0 0 0
17351 0 19 0 17.08595041772237 25.20927140444676 40.07986407861099 0 0 0
15624 0 19 0 21.510998902105587 25.208936333955837 42.953048299282436 0 0 0
17294 0 19 0 16.967861099347225 28.737207703437416 43.142952990669265 0 0 0
1254 1130 19 0 28.16889394924529 22.04224039107635 38.79975005407983 0 0 0
1260 1136 19 0 29.63288093285009 27.164110458727972 42.78435982353651 0 0 0
1227 1103 19 0 29.06054471338918 27.592324275655194 37.31011490157833 0 0 0
17143 0 19 0 25.35134086629341 26.1825457573489 40.01637561260676 0 0 0
14092 0 19 0 25.40576382918857 22.004335680112312 43.15458522968229 0 0 0
17410 0 19 0 7.297353484482825 3.515351654721958 48.02146959234172 0 0 -1
17403 0 19 0 11.884264153471783 4.328143200499868 46.96785855824093 0 0 -1
14740 0 19 0 11.992206690627206 0.43454949126250225 43.52341486530417 0 0 0
16372 0 19 0 16.8476621041778 4.178642987950963 46.454961491906076 0 0 0
15170 0 19 0 22.464081935189366 4.05686103514993 48.5737481271095 0 0 0
1240 1116 19 0 26.1011931051779 3.2208955782687543 43.64345377175595 0 0 0
1161 1037 19 0 31.162199858474043 5.954825285066714 44.76128684050756 0 0 0
15274 0 19 0 28.164935648568797 2.930838684080817 47.98003642183418 0 0 0
15095 0 19 0 13.299529339858445 8.78890774008599 44.3312166581839 0 0 0
16387 0 19 0 8.918528435955672 9.588178645281598 47.61091297081778 0 0 0
17642 0 19 0 13.630254297848671 8.383843436537372 50.285441122799654 0 0 0
17530 0 19 0 11.848919850509906 13.18128550635999 49.14715414075359 0 0 0
17678 0 19 0 17.861213669652315 8.103867678252547 43.86366607027341 0 0 0
5677 0 19 0 19.04199468133982 8.382304733791985 49.11575038572704 0 0 0
16645 0 19 0 22.854724320191618 8.167113318892193 46.01047286358308 0 0 0
17555 0 19 0 16.749686503785867 12.166105996984193 46.97085762229726 0 0 0
15149 0 19 0 22.14220182925978 12.047383642419444 49.4262567913377 0 0 0
1709 0 19 0 27.5599841138525 8.382428706991005 47.956484983576374 0 0 0
16879 0 19 0 25.236446888397577 12.562553369500257 45.87007741083555 0 0 0
1159 1035 19 0 30.462155585642023 13.179123315806466 46.02755682297079 0 0 0
16259 0 19 0 10.142432204962526 20.29388867998224 43.84475203989475 0 0 0
16580 0 19 0 13.556269752953861 16.53186753281785 45.316624677214946 0 0 0
17739 0 19 0 11.602276794317174 18.196057905432365 50.240307666902034 0 0 0
17360 0 19 0 15.325789546345968 20.738177562410094 47.6808666058774 0 0 0
1097 973 19 0 16.26642181426435 16.02991733558006 49.79771635520827 0 0 0
16898 0 19 0 18.56483940088884 16.637248970787567 45.33102080067362 0 0 0
17518 0 19 0 21.939170128844726 17.27437355051871 49.246820577739584 0 0 0
1210 1086 19 0 31.683841844490754 15.97871458863473 49.82212773225448 0 0 0
1137 1013 19 0 24.570188678625104 17.67623162107698 44.88157607357969 0 0 0
1090 966 19 0 25.289952720179972 21.08440826343 48.222362972047826 0 0 0
1200 1076 19 0 29.11740601937787 18.371211348430414 46.18342233632172 0 0 0
17287 0 19 0 26.824859211292722 15.059810409382537 49.75464186279493 0 0 0
16828 0 19 0 15.19556989964068 28.277392445803017 48.013089195466115 0 0 0
17752 0 19 0 8.29235209877505 21.808439665664554 50.44963954513369 0 0 0
16917 0 19 0 11.500138555881167 24.32927358138379 46.56509339190734 0 0 -1
17559 0 19 0 9.08795042093284 27.872224095309132 50.71522831380426 0 0 0
17339 0 19 0 20.42709242418868 27.712994295622366 46.94773994675214 0 0 0
16533 0 19 0 16.986355120765314 24.58968138681944 45.215143700282255 0 0 0
15955 0 19 0 17.86698120489937 24.625568033991737 50.54928936771135 0 0 -1
15188 0 19 0 20.69788614731597 22.001886448417633 47.268976914835086 0 0 0
12220 0 19 0 22.78293581791085 25.404374267798612 50.15335511499321 0 0 -1
1233 1109 19 0 26.008843323519283 27.249075208034295 45.8357906203687 0 0 0
1052 928 19 0 29.214201092220584 23.883400772188033 47.13187923255421 0 0 0
15428 0 19 0 31.928776548316836 28.496629136052373 48.2271874876586 0 0 0
17689 0 19 0 7.291771803462229 0.004842543590218398 52.41663682616155 0 0 0
17719 0 19 0 7.349315822736476 5.905851736127595 52.11334467245422 0 0 0
17634 0 19 0 9.626784332181714 0.6189849245075457 56.422543326831594 0 0 -1
17479 0 19 0 11.411543320792056 5.6479694759477725 55.02086086314762 0 0 0
17638 0 19 0 14.941089407248464 2.1163944464691387 56.14559025161568 0 0 -1
17483 0 19 0 15.267553830500079 3.565843087418021 50.89924617224506 0 0 -1
15476 0 19 0 19.747532673529506 4.4873695047868605 53.68381673766118 0 0 0
11871 0 19 0 23.06544940735608 5.334635153998213 57.59642713346699 0 0 0
15401 0 19 0 29.847737205098202 1.2729731931622867 52.61100908579958 0 0 0
15360 0 19 0 27.832713157959194 3.040895287134473 57.03441677377123 0 0 -1
16030 0 19 0 25.00299048275817 2.9099218779914904 52.987091285698504 0 0 0
1207 1083 19 0 28.90364105813577 6.515462764242148 53.00101017044403 0 0 0
7768 0 19 0 31.191636187964573 6.863048113974042 57.65859034782046 0 0 -1
17615 0 19 0 7.429829404417412 7.58753933910715 57.16985017924707 0 1 -1
16938 0 19 0 6.746810902590991 11.1504519753785 53.470692301379366 0 0 0
17709 0 19 0 15.997963003438318 7.381152456657488 54.819700784071664 0 0 -1
17073 0 19 0 11.607299605980478 10.832379111023181 54.36478367492979 0 0 0
17156 0 19 0 16.139149517668244 12.16279213692124 56.720437697401266 0 0 -1
17128 0 19 0 17.06862155296504 11.867764404053982 52.02274696418545 0 0 0
17099 0 19 0 21.096348514616597 9.881068612417137 55.2157187223512 0 0 0
16541 0 19 0 23.95955908972668 7.735077730919028 51.37420352689031 0 0 0
380 256 19 0 29.90271182237394 11.5852897674499 51.26589154879377 0 0 -1
14445 0 19 0 24.79443834899128 13.054763733284007 53.89938743966107 0 0 -1
17005 0 19 0 25.46383055228466 9.3174152777495 56.77129528395794 0 0 0
8316 0 19 0 30.223507117276622 11.365812192437948 55.95684085287629 0 1 -1
17681 0 19 0 8.984700326759375 17.267114258378186 54.2059176505851 0 0 -1
17090 0 19 0 13.404018296484285 15.262572226719893 53.80423423272101 0 0 -1
17352 0 19 0 14.380895741809699 19.273445078187976 57.70474075314261 0 0 -1
17685 0 19 0 10.886208620253232 21.19368816945602 55.38023363098914 0 0 -1
17602 0 19 0 16.138146062286225 19.745265412265272 52.78585224415581 0 0 0
15181 0 19 0 20.765950469617287 20.80824248928696 52.259466690574456 0 0 0
17259 0 19 0 18.685295239714065 15.956649472197421 54.684250356781654 0 0 -1
15679 0 19 0 19.567542397781978 19.8516894716852 57.65825046531288 0 0 0
1042 918 19 0 23.150829582500023 16.726858033131894 57.31258316896194 0 0 0
1183 1059 19 0 29.658159121471144 20.113724272449364 51.10993717237387 0 0 0
17517 0 19 0 25.070446359217915 18.52285167718405 52.62350786325303 0 0 0
12268 0 19 0 28.15147743794136 20.949685475888792 55.35010480259299 0 0 -1
15576 0 19 0 29.036065044877148 15.528732037984103 54.28870184847863 0 0 -1
17556 0 19 0 6.030068653845499 28.369363536430885 54.29231269751395 0 0 -1
424 300 19 0 15.962611268680407 27.559158760380747 57.473970135905546 0 0 -1
14766 0 19 0 13.191544996067844 23.615920558747174 51.787314222545454 0 0 0
16148 0 19 0 14.836732300701605 27.913264487404597 52.90542141819418 0 0 -1
17701 0 19 0 10.492644670389234 26.30170830760996 55.97927032888177 0 0 0
17548 0 19 0 16.390664395846724 23.40944781925397 55.45193971921196 0 0 0
17144 0 19 0 20.85298560135968 25.636739931691757 54.49203227725763 0 0 -1
13729 0 19 0 23.660601533294383 22.486127742556203 56.54425910610634 0 0 -1
1885 0 19 0 31.053541858381394 24.67955465654896 56.33315699128091 0 0 -1
1075 951 19 0 27.10374674568216 25.038235892546787 51.930569149227416 0 0 0
17553 0 19 0 8.9117889958257 32.12067600757725 5.523255232665231 0 0 0
16360 0 19 0 14.774701916761122 31.512729103176373 5.834841948005905 0 0 1
17428 0 19 0 12.217940374822538 30.247500532299505 0.5550283175036942 0 0 1
17418 0 19 0 17.152937950708367 32.058234803184334 1.8104212611829236 0 0 1
12118 0 19 0 22.473050289638927 33.42636576836516 3.1717886973440583 0 0 0
11411 0 19 0 19.494330067245397 32.724896474589734 7.231845958326689 0 0 0
16219 0 19 0 20.80094668106345 29.001061614117457 4.030441790180243 0 0 1
6196 0 19 0 30.46635909380916 32.472335636661604 3.8931491162995395 0 0 1
1652 1528 20 1 26.37772668007644 32.83230044208797 4.864007273762779 0 0 0
266 142 19 0 26.699899225466126 31.929559237134608 0.6098013206506412 0 0 0
16937 0 19 0 10.820323920806183 37.233993906287665 6.640630526021159 0 0 0
16547 0 19 0 14.429826591645629 36.30266613893689 3.2369501525262003 0 0 1
14828 0 19 0 14.61251562529528 42.895210314114884 0.557979776779292 0 0 0
17515 0 19 0 14.511859725285953 40.676327963325484 5.58821658964768 0 0 0
13346 0 19 0 10.35269261738286 39.636363223297366 2.1827824450216218 0 0 1
17118 0 19 0 18.95100420893537 36.46244988487687 4.235874771966557 0 0 0
10932 0 19 0 23.12870835950854 37.008021890914016 6.536009757312689 0 0 1
17421 0 19 0 23.5301757587334 41.95593335649136 5.039099470217575 0 0 1
13362 0 19 0 22.492303900520785 38.753444510684055 1.3520403848754 0 0 1
17199 0 19 0 18.327442493710393 43.38652685199334 4.111980908160878 0 0 0
14267 0 19 0 26.357251947056834 36.33537987542067 2.6016377996085533 0 0 1
16539 0 19 0 26.662898415106064 41.88887747893273 1.51155705712433 0 0 1
798 674 19 0 27.87752699833128 40.93981500375232 6.331513050976585 0 0 0
12207 0 19 0 30.848855983581526 38.303393561086246 3.2717898281409865 0 0 0
14629 0 19 0 5.800432935803583 47.60301973694036 4.047358171956212 0 0 0
17723 0 19 0 8.897590302868906 43.62165921479241 4.894006698738792 0 -1 1
15007 0 19 0 12.856692942728614 45.95608450562738 4.016828911466487 0 0 1
17622 0 19 0 15.359121739076064 49.284306773055285 6.4460649222244815 0 0 0
15205 0 19 0 21.988588046253632 47.10307918924658 4.613517152341282 0 0 0
17388 0 19 0 17.97842808761297 47.23036571554051 1.2565824854120482 0 0 1
16178 0 19 0 22.939948820709294 45.11183358800523 0.2828576918172646 0 0 0
9881 0 19 0 24.217320748849154 50.658287090514165 2.1161930793798804 0 0 0
1412 1288 19 0 31.546095267951447 43.96057148768953 3.2242467191167656 0 0 1
16086 0 19 0 26.837026517763217 45.772469595797006 3.9737099972343897 0 0 0
787 663 19 0 29.075151360477182 49.81923489196835 3.049568367631704 0 0 0
14913 0 19 0 25.515928580817462 50.413379081055 7.049407408637346 0 0 0
16790 0 19 0 6.149577578695974 52.38610685976895 5.351012351294833 0 -1 1
17755 0 19 0 7.657464025615262 54.33154126059867 0.7443238598238958 0 0 0
11063 0 19 0 10.427397454860362 50.78808989034 2.6521411700643776 0 -1 1
17573 0 19 0 11.556162479604001 56.32105044904863 2.937028382067248 0 0 1
15639 0 19 0 15.437789074151622 54.502328953582754 6.1437416116285 0 0 0
15964 0 19 0 15.36694240008925 51.201362534155564 1.7947094326382702 0 0 0
17436 0 19 0 10.584466497571645 53.297522841200504 7.046844795561039 0 0 0
5567 0 19 0 19.619603790739735 52.33143037297611 4.407730180821647 0 0 0
17026 0 19 0 16.695360832098086 56.19792892936613 1.3612479506011128 0 -1 1
16967 0 19 0 19.907784091575362 57.69724169769717 5.066707377634298 0 0 0
16815 0 19 0 24.643362236777214 55.85102979943762 5.469210395929475 0 0 0
290 166 19 0 29.881413532446864 53.985608939374956 5.9586608871962135 0 -1 0
14204 0 19 0 27.02843035769255 54.53236089173678 1.19119416009789 0 0 0
12921 0 19 0 11.954841404968963 32.8486944318322 10.046231230412964 0 0 0
17596 0 19 0 16.023719551031274 34.98657414877597 12.854564142258086 0 0 0
17636 0 19 0 10.597262612077467 35.24504381034859 13.98073284904302 0 0 0
14666 0 19 0 9.430710729254622 29.669671609575204 12.853417204978383 0 0 0
190 66 19 0 20.60079244182082 32.061330626560384 12.968071072286207 0 0 0
15690 0 19 0 16.274697539300913 29.419947973131368 9.9285778584695 0 0 0
1490 1366 19 0 24.624063788016407 32.53245858635548 8.491579926125768 0 0 1
433 309 19 0 27.85254025298039 36.22224355583472 7.360492144115479 0 0 0
285 161 19 0 25.132042514438684 35.98622773930349 11.708318379856763 0 0 0
277 153 19 0 29.377467048395463 31.20240639575848 8.710396082140797 0 0 0
426 302 19 0 31.107164874919157 34.1902510682251 11.677954517494653 0 0 0
170 46 19 0 27.315418737397998 31.616608992842494 13.086012394325943 0 0 0
17756 0 19 0 6.323332237642787 40.00175120966607 7.6373540553945745 0 0 0
17749 0 19 0 7.2804963097575435 40.026038098944674 13.173591242023416 0 0 0
17280 0 19 0 15.389316733989293 36.505233547907 8.410125525440364 0 0 1
16664 0 19 0 10.850667606009008 41.07505142366629 9.565837758437686 0 0 0
17443 0 19 0 15.451107779616247 40.51960202388803 11.430107873727 0 0 0
14744 0 19 0 20.23989011334174 36.4372628751345 11.057511738092401 0 0 0
15056 0 19 0 20.166024762193533 41.4508909268261 13.331125563737574 0 0 0
16275 0 19 0 19.40857823568883 39.97125049251114 7.740205480813287 0 0 0
13310 0 19 0 24.225006495449048 40.976511602551724 10.217045076822158 0 0 0
10682 0 19 0 29.634289044395555 38.85418871298628 11.453055837961703 0 0 0
11421 0 19 0 7.193061806763228 45.022262948629546 9.17863239476405 0 0 1
17732 0 19 0 6.980388573201386 50.04142528183294 10.139354275162905 0 0 0
17316 0 19 0 14.451127049285375 44.697938630254 8.909098313776363 0 0 1
12740 0 19 0 10.997586129109973 48.608030876061 8.468108690222582 0 0 0
17583 0 19 0 10.838943386070811 45.01397660042397 12.71993415118779 0 0 0
15074 0 19 0 10.936927688181507 49.72212369513595 13.584999018042225 0 0 0
16628 0 19 0 16.255029673185128 47.99232760337886 11.728021826125786 0 0 0
14033 0 19 0 19.212375896875926 45.15664098321229 8.484507840246804 0 0 1
14948 0 19 0 19.810402335502335 49.968898738260755 8.630573778142917 0 0 0
15068 0 19 0 22.19393618876444 46.11169663136259 12.460161957977816 0 0 0
14787 0 19 0 25.138340452062927 45.48510958075652 8.586026396971812 0 0 0
702 578 19 0 29.718399527171993 46.761157039652495 7.971091866931431 0 0 0
1229 1105 19 0 28.978150009975455 43.79954251613729 11.79193747764949 0 0 1
6399 0 19 0 27.04470709732659 48.42043872362591 12.62263327771526 0 -1 1
17713 0 19 0 3.434725351634435 53.92874059178966 12.993630290214723 0 -1 0
829 705 19 0 14.173459614086994 53.08736203461373 10.544821618303258 0 0 0
17094 0 19 0 9.863194417812974 55.260931851110016 12.116528876176622 0 0 0
17357 0 19 0 19.537908778076986 51.30764473826241 13.56337468560517 0 0 0
17163 0 19 0 20.54753688601671 55.14969958359099 8.886257250811148 0 0 0
17237 0 19 0 19.071771505054173 57.017020591922595 13.278116384022983 0 0 0
13006 0 19 0 23.569000495119248 53.37065172082541 12.084077657196758 0 0 0
420 296 19 0 30.24004001055542 50.80011994408028 10.158042890452649 0 -1 0
6630 0 19 0 27.22807480427264 55.64375986106449 9.913615078355885 0 0 0
14486 0 19 0 26.27480124266849 57.084673361606306 14.484809993014546 0 0 0
17736 0 19 0 8.805754116532476 32.865415544268814 18.105112813575502 0 0 0
11821 0 19 0 13.847819459489598 30.951584089315897 15.246352840290417 0 0 0
15703 0 19 0 13.14430524652071 35.80253771727066 18.043540885114854 0 0 0
13550 0 19 0 18.413461026607276 34.14249347081625 17.00708364507095 0 0 0
16453 0 19 0 22.720581682782928 33.95617178711446 20.93630801912669 0 0 0
9798 0 19 0 24.015177282010086 32.705926990675174 16.355357713033065 0 0 0
15721 0 19 0 20.2003434615498 29.614060275801215 18.25889440600626 0 0 0
195 71 19 0 27.858966952817322 34.045920119094085 20.680430964197175 0 0 0
223 99 19 0 31.600789891361426 31.12971411886348 18.886290971204755 0 0 0
11998 0 19 0 28.16162444891925 36.20152168851313 15.383061853146717 0 0 0
158 34 19 0 25.060682692183747 29.437201866404102 20.64929109377743 0 0 0
17657 0 19 0 3.2768767265045518 42.04145505296168 16.72767896445889 0 -1 0
16807 0 19 0 11.646083861770723 40.55814840851719 14.866334558210049 0 0 0
17748 0 19 0 8.338772985562912 38.37486519854979 18.200221494041028 0 0 0
16588 0 19 0 12.742596282593414 40.35937110543122 20.25655665118352 0 0 0
17662 0 19 0 8.133141610338038 43.30782960018044 17.31184672242795 0 0 0
16810 0 19 0 17.414220892398202 42.547077861592754 20.059898082934303 0 0 0
217 93 19 0 21.78708256722493 37.235588040931596 15.618558458531346 0 0 0
17655 0 19 0 16.82273131086663 38.95914538680221 15.952543393230766 0 0 0
796 672 19 0 21.904103165042752 42.24205349148536 17.713354644547824 0 0 0
12876 0 19 0 20.744301004461292 38.59837216445208 20.7097409831781 0 0 0
17658 0 19 0 16.187758116137875 36.89740341583612 21.744045790386355 0 0 0
770 646 19 0 31.79430113746943 41.38640736493518 14.919158727880578 0 0 0
12407 0 19 0 25.026892269669933 37.52955414624406 18.88915905520189 0 0 0
12867 0 19 0 25.567799796523357 42.20417549214077 20.587788389126114 0 0 0
746 622 19 0 26.297912497229625 40.75808851579768 15.099935793002174 0 0 0
238 114 19 0 29.545371316480168 39.14507954639921 19.4593491608512 0 0 0
17735 0 19 0 6.348565796645543 47.334987813179204 14.713315208949846 0 0 0
17707 0 19 0 5.635521763361602 46.85685770846051 20.360324090416714 0 0 0
17691 0 19 0 12.6277127822214 45.41854383763132 18.130171196114986 0 0 0
15860 0 19 0 14.707517281948608 50.029061216250746 16.81345170520558 0 0 0
16324 0 19 0 10.08012076770955 49.37851770033565 19.02813417832566 0 0 0
16903 0 19 0 15.805099575797716 43.77682387815455 14.943018404562618 0 0 0
17495 0 19 0 17.17624479840878 48.09096088978106 20.40905429944248 0 0 0
13218 0 19 0 20.076266628781784 47.06661198308363 16.693006300566946 0 0 0
1451 1327 19 0 23.994227914827317 50.3730366420159 16.0817835586488 0 0 1
14152 0 19 0 21.88502193927693 49.759990138113544 20.633730731848356 0 0 0
854 730 19 0 29.910435311830316 44.37595192126216 19.358959766134884 0 0 0
13115 0 19 0 25.21884172406371 45.65322331252889 17.029425221456904 0 0 0
12342 0 19 0 30.41287219641272 46.87491837799612 15.586786601001824 0 0 0
897 773 19 0 26.868328714387626 48.648152290279974 20.163310562679076 0 0 0
17677 0 19 0 4.739236061470416 57.124815575191974 17.75797472625358 0 -1 0
15757 0 19 0 8.000791060759907 53.3610732236221 16.645620782876613 0 0 0
11530 0 19 0 15.199518952153458 55.20370351161106 15.960270878391018 0 0 0
15755 0 19 0 12.412954409745257 53.610800821485405 19.94595640595854 0 0 0
17411 0 19 0 10.908601947335942 57.74202881889274 16.062940171125867 0 0 0
17010 0 19 0 18.886731232966255 52.494030684703866 18.32626653049842 0 0 0
17104 0 19 0 22.586403741701336 55.37065092066918 16.75121131703045 0 0 0
17324 0 19 0 19.653901949612266 57.96953734093438 19.285411918977335 0 -1 0
718 594 19 0 28.805405100044847 52.41308461651839 14.960135625610341 0 0 0
839 715 19 0 30.98621341129872 51.22169987720298 19.61468616570054 0 0 0
13735 0 19 0 26.690531432722263 54.12777739164387 19.2660589602417 0 0 0
681 557 19 0 30.814125811200284 56.39151906707224 16.917967422628458 0 0 0
17734 0 19 0 5.603355877690283 35.402511771422326 22.47011337917625 0 0 0
17741 0 19 0 5.7723880503645235 33.360739748717 26.835701777505676 0 0 0
15316 0 19 0 15.334161874020529 29.740390268804315 27.529679697833174 0 0 0
15509 0 19 0 13.787820488223204 31.057641868735196 22.811609789919792 0 0 0
17670 0 19 0 8.804762672825316 31.277419202484012 22.915660562004486 0 0 0
17462 0 19 0 11.41778615725891 33.31863674966127 26.754293674860044 0 0 0
15649 0 19 0 8.75610813843343 29.3714905131716 27.964405599302342 0 0 0
17211 0 19 0 18.155130907859906 32.26076026367824 22.00043176639861 0 0 0
11395 0 19 0 20.3191703138925 30.57386026136769 27.948307426674344 0 0 0
17363 0 19 0 19.68707381620799 35.0367899179167 25.169028144290095 0 0 0
463 339 19 0 29.032086401242253 33.64379801571709 25.50248509926732 0 0 0
12683 0 19 0 24.744462371488464 31.50674925135515 25.088675266998717 0 0 0
368 244 19 0 29.314429856440633 29.33415763510506 23.058272041845175 0 0 0
17513 0 19 0 6.582855011054426 41.45326600731267 22.339429104417547 0 0 0
15436 0 19 0 14.890248985155896 42.42893868740316 28.416056347670345 0 0 0
17727 0 19 0 10.971948476364828 36.48731723221934 22.726217346822512 0 0 0
17353 0 19 0 8.521962689655835 37.253518931881054 26.623923442461894 0 0 0
16658 0 19 0 11.139160587684323 41.102037266593065 24.857008962967026 0 0 0
17095 0 19 0 14.472898069210379 36.95764107206569 26.701008683802822 0 0 0
757 633 19 0 19.170644627275223 38.57359765103996 28.900728247357797 0 0 0
17135 0 19 0 18.102540548655064 40.68242944376419 24.56441031672351 0 0 0
830 706 19 0 23.032862428012876 41.49017758852951 25.455430921742316 0 0 0
312 188 19 0 25.312564718042026 37.23872412591956 24.56895511718498 0 0 0
355 231 19 0 29.716127878526017 39.36850157061999 24.69588808236956 0 0 0
690 566 19 0 27.575901230773958 42.786720929576454 28.871939081296343 0 0 0
17706 0 19 0 7.312358550842274 43.78764922510972 28.482569848152057 0 0 0
17162 0 19 0 14.956668878486754 48.80715224558051 28.59953133869296 0 0 0
17730 0 19 0 11.261062978424372 46.25792996193453 27.0672558394054 0 0 0
17425 0 19 0 10.029750261178938 45.166952888650684 22.291852488845105 0 0 0
17381 0 19 0 14.676000689963246 44.681609637740685 23.465368996034265 0 0 0
17624 0 19 0 13.100903407180443 49.63635023733532 23.824596583224196 0 0 0
152 28 19 0 21.22253963903927 44.95605201724023 22.628970922357336 0 0 0
689 565 19 0 23.59322192202317 48.38384432088706 25.58497027777327 0 0 0
17191 0 19 0 18.90243126189296 49.870981301203855 24.829739490505943 0 0 0
17139 0 19 0 18.365439624447934 45.33518652293939 26.793807804100208 0 0 0
7380 0 19 0 27.593001357399363 44.85393762960823 24.387898150945006 0 0 0
831 707 19 0 27.959265208890166 48.25917745866725 27.822432305657358 0 0 0
804 680 19 0 30.890310472326032 48.40002781730609 23.97314549455202 0 0 0
900 776 19 0 32.05357827006005 45.65417784697806 28.657744303953322 0 0 0
441 317 19 0 32.14269990887338 43.64448932899209 23.625707354364362 0 0 0
17196 0 19 0 7.21017961870897 55.27408582771619 22.95794923782845 0 0 0
17659 0 19 0 9.460800385324763 51.841168818456744 27.836475762147433 0 0 0
17630 0 19 0 10.575311929680328 57.16793098382082 27.113005334358327 0 -1 0
17235 0 19 0 14.834272633386439 53.438070781361034 26.535091810026486 0 0 0
11548 0 19 0 20.161980621169473 54.686129086397344 26.6951420629699 0 0 0
14789 0 19 0 22.17077518118182 54.970239477839215 22.147634103863673 0 0 0
14544 0 19 0 17.169055381000106 54.421342746781065 22.34743618196535 0 0 0
10703 0 19 0 29.598113367516508 54.48917366052563 27.887914316036206 0 -1 0
841 717 19 0 30.867184540192063 55.31396381063346 22.498201672935753 0 0 0
13651 0 19 0 27.450807885770136 51.737593190949646 23.571177554991273 0 0 0
16890 0 19 0 26.040218215542744 56.93947747161675 24.96701490048177 0 0 0
14301 0 19 0 24.548885464254333 52.75561434310245 27.507124086573388 0 0 0
17654 0 19 0 8.317899606401372 33.584868344552135 31.88041330820588 0 0 0
17313 0 19 0 13.0915521279531 34.22404175762511 31.44954577248786 0 0 0
17690 0 19 0 11.501989666407646 32.267616028283115 36.11497650403316 0 0 0
12687 0 19 0 13.17109102014233 29.11103381160422 31.97814536986479 0 0 0
2605 0 19 0 21.483050078506558 32.582904427070964 33.25226124408563 0 0 0
14150 0 19 0 17.71526088922002 34.009745559408614 29.901365169421297 0 0 0
17200 0 19 0 16.480123720176824 33.28979995797188 34.733713019513566 0 0 0
14782 0 19 0 22.992191947561867 34.93604533785962 29.20342618100561 0 0 0
2718 0 19 0 18.09812496287746 29.09398176335131 32.1905529678653 0 0 0
184 60 19 0 28.48891963396672 32.79428624412503 30.431743712732622 0 0 0
1649 1525 20 1 29.371797216201365 36.07581895802731 34.97515067393612 0 0 0
374 250 19 0 27.71479454423371 32.1347854083952 35.3555291340621 0 0 0
9258 0 19 0 25.348650551789742 36.055002455548305 33.51568655489349 0 0 0
1256 1132 19 0 24.55067018736826 29.622327135733425 30.62763473338685 0 0 0
17722 0 19 0 8.381954656810644 37.828362929735036 34.56227738881896 0 0 0
17343 0 19 0 10.896427749457992 40.56166431599401 30.284336606606516 0 0 0
14477 0 19 0 14.765391884693283 42.078660879128975 35.30556136023912 0 0 0
17621 0 19 0 13.147259868864976 36.915090232334684 35.8660916553798 0 0 0
15884 0 19 0 15.377179806948472 38.7641844891757 31.816001893251553 0 0 0
15396 0 19 0 20.30617392802339 37.40822661507058 33.479049353189005 0 0 0
16868 0 19 0 18.569260422747615 42.995670649689984 31.30555694534195 0 0 0
15161 0 19 0 20.043151513835973 42.179834424500825 36.05681394508967 0 0 0
697 573 19 0 24.03736451673497 40.51127706705126 31.159081844228353 0 0 0
356 232 19 0 28.462903585633246 40.204054953692996 33.31621782025725 0 0 0
14559 0 19 0 28.030141282121463 37.89035533511662 29.15500888638242 0 0 0
17551 0 19 0 7.997312791071193 45.06875994648787 33.56755813834231 0 0 0
17754 0 19 0 12.651754425512737 45.04814062340758 31.877643455527977 0 0 0
15539 0 19 0 11.466836737711548 50.21465503012004 32.5569720164328 0 0 0
13272 0 19 0 22.99015862885376 44.92928552710158 29.409417826218384 0 0 0
16298 0 19 0 16.706058413628547 47.48291943832285 33.283029010664194 0 0 0
1469 1345 19 0 21.496867922667693 46.53881094309772 33.87578030449686 0 0 0
16998 0 19 0 20.406842771646826 49.87748276459938 29.55637657687035 0 0 0
1511 1387 19 0 31.900971873233395 43.859048570527655 33.067602908749926 0 0 0
344 220 19 0 26.603217841469736 44.84930498413108 33.37054092633293 0 0 0
816 692 19 0 30.027060967070398 48.06943951790891 36.02349040356797 0 0 0
14963 0 19 0 25.24334515356335 50.399521263892986 32.041522689463825 0 0 0
17461 0 19 0 8.100497955195364 54.34261772195333 31.876252458158397 0 0 0
17640 0 19 0 13.40713160026107 54.47437008573393 35.32133554713023 0 0 0
17429 0 19 0 12.545199252218124 54.434404988364626 30.644161099228665 0 0 0
14961 0 19 0 20.373278176893002 50.97981725328016 35.123205924348895 0 0 0
15239 0 19 0 17.559714067499318 57.09404137210052 30.412802662722665 0 0 0
17377 0 19 0 16.737386584401868 52.3398967820147 32.058379096072045 0 0 0
17438 0 19 0 22.024367919193015 54.3706299621501 31.343023823928238 0 0 0
15501 0 19 0 18.666775403956194 55.802398402121305 35.02827830476124 0 0 0
14833 0 19 0 29.819821177634754 50.87372062616455 31.262412477196353 0 0 0
1790 0 19 0 27.954757066132895 53.27415423701433 35.36023074429552 0 0 0
139 15 19 0 26.822554501514634 56.58688889425086 31.29271255691613 0 -1 0
886 762 19 0 32.17358339577092 55.71645146375957 32.88323291825573 0 0 0
17667 0 19 0 9.77915072622434 33.452453814505866 41.1607245748679 0 0 0
17040 0 19 0 14.750415829857404 34.39485684162738 39.85257384449198 0 0 0
10863 0 19 0 12.946346280951008 29.44315791507397 40.079634272606086 0 0 0
12912 0 19 0 22.48649682812695 30.575713068498583 41.16713249426507 0 0 0
16754 0 19 0 19.628765723078594 33.963873967231976 42.24097859540525 0 0 0
17696 0 19 0 18.8711013174522 30.20435655825105 38.52134612701337 0 0 0
1152 1028 19 0 22.78107697701761 34.38953219990163 37.5465261972091 0 0 0
340 216 19 0 27.26837070766898 31.272257785504816 40.0323311392222 0 0 0
14524 0 19 0 24.720826452105857 34.86909872960769 42.18246296171788 0 0 0
1136 1012 19 0 30.608731494005887 34.9101870330538 40.83930431369304 0 0 0
16604 0 19 0 7.886786929025963 38.38507599428254 42.31116799147746 0 0 0
16116 0 19 0 9.716458824539675 41.72681719044894 37.25030509148066 0 0 0
17614 0 19 0 13.885902067935588 40.062980933959665 39.48191636422799 0 0 0
13842 0 19 0 18.125551467351066 37.93975447486942 37.821082772468436 0 0 0
14844 0 19 0 22.677196124304178 38.65627200243012 40.25202498484993 0 0 0
13313 0 19 0 18.23077757648137 38.95183852733899 42.632627658196384 0 0 0
892 768 19 0 24.887384107387962 40.794065949423135 36.28767653215619 0 0 0
6095 0 19 0 27.041500680002375 36.92822609503533 38.21292506969694 0 0 0
726 602 19 0 27.395493928606253 41.24098513346613 41.347278671477 0 0 0
11457 0 19 0 29.684847081639052 43.08032212517453 37.08921348368294 0 0 0
1195 1071 19 0 31.39710918525123 38.843952065188674 43.435742932807585 0 0 0
1235 1111 19 0 31.725074127414597 39.21995482500909 38.81721901600341 0 0 0
17115 0 19 0 7.651473988768535 47.9438989150664 39.31587448276113 0 0 0
17714 0 19 0 9.30956019480734 43.645638606017116 42.12162916535968 0 0 0
17669 0 19 0 13.569469529977532 45.394391187886676 41.859965391556806 0 0 0
16159 0 19 0 11.88961907300669 46.43968898428221 37.146940500330786 0 0 0
14563 0 19 0 10.46787056123514 48.998916688095726 43.46609744915685 0 0 0
17571 0 19 0 15.317120865843894 50.47338384608434 37.09718603843173 0 0 0
17585 0 19 0 16.505324159098816 49.88708634548302 41.70823144656515 0 0 0
15236 0 19 0 22.71288225933885 43.6984225377504 39.776577976709575 0 0 0
15334 0 19 0 17.34013919722233 45.92164638886168 38.15049680224289 0 0 0
16873 0 19 0 19.000692083226024 45.21053941172947 42.60060283976929 0 0 0
1715 0 19 0 21.609818719650203 48.616714556777204 39.90641315195186 0 -1 0
1527 1403 19 0 24.97392442348096 49.05358303412245 36.53369094238929 0 0 0
1701 0 19 0 27.686333689167785 46.61776924981187 40.78686166878505 0 0 0
1446 1322 19 0 31.76488512067331 43.86323420163758 41.50901257250769 0 0 0
16590 0 19 0 6.868142945642981 53.332451202674434 36.79522355269047 0 -1 0
17757 0 19 0 7.989124936578465 53.77392008741701 43.383405623599444 0 0 0
16520 0 19 0 14.73452110257118 57.950178009844315 38.603671980712164 0 -1 0
16822 0 19 0 10.986593008554724 51.0729775904111 39.096525666829216 0 -1 0
17561 0 19 0 9.628692655895996 56.2878340593271 39.55333405085232 0 -1 0
16720 0 19 0 14.158256570748465 53.97145603332742 41.344455570360914 0 0 0
7673 0 19 0 19.151233203710436 53.276079935245626 39.44116452884944 0 -1 0
1551 1427 19 0 23.309744524485417 53.267707314127364 42.45541035805219 0 0 0
1434 1310 19 0 23.59426915902978 53.93971887200044 37.41052009715346 0 0 0
15462 0 19 0 21.17647541010504 57.71870450244569 39.76489834133665 0 0 0
7341 0 19 0 28.06314563848907 51.60821205019795 39.81016301505974 0 0 0
1169 1045 19 0 30.756349139072775 56.3420214830076 38.34684837896178 0 -1 0
1512 1388 19 0 26.38564038578578 56.712607902796606 40.59817791417432 0 0 0
1509 1385 19 0 31.621824807763964 53.57930247852063 42.71138535815098 0 0 0
17728 0 19 0 10.030470907536262 33.713126673162066 47.16478441661463 0 0 0
17480 0 19 0 14.298937051163136 32.372545387601264 44.50901710258716 0 0 0
17635 0 19 0 14.477840616900338 32.389616629494014 50.3272472608784 0 0 0
15987 0 19 0 10.367076928251139 29.24779674977971 44.92989147520743 0 0 0
17626 0 19 0 18.68923826710748 32.562038967320255 47.720938606286246 0 0 0
15595 0 19 0 24.112255104739898 31.793968094253504 45.97741861259828 0 0 0
14846 0 19 0 21.6524118679796 36.072783215086844 45.84126108216387 0 0 0
16970 0 19 0 27.40154538429545 29.72175706728959 49.86700909258146 0 0 0
1213 1089 19 0 29.362908018481594 31.801126508746968 44.88599349721743 0 0 0
15314 0 19 0 28.419618897311455 34.41861034420971 48.50917574772797 0 0 0
16494 0 19 0 6.339371965701895 37.47155672134467 47.306562367367384 0 -1 0
17130 0 19 0 6.620392448173972 42.108672866887375 50.685286667424315 0 0 0
16040 0 19 0 12.525972793944169 37.18712526494547 43.537619025758566 0 0 0
17554 0 19 0 13.302696966233219 38.43902107746709 50.50412860344938 0 0 0
17651 0 19 0 10.146627517579326 40.24406215352434 46.99908726324945 0 0 0
17387 0 19 0 14.903029704404071 41.399324331355594 45.40327975925691 0 0 0
17453 0 19 0 16.651621570575667 36.509206490300244 46.281385244168504 0 0 0
814 690 19 0 23.077504792038834 41.31385930177462 44.10650058387723 0 0 0
16233 0 19 0 19.948043344286337 39.93258920341116 48.66705364738827 0 0 0
9988 0 19 0 30.64170738061577 38.557846512974 48.028725296298035 0 0 0
8407 0 19 0 28.74333091744312 42.84709913318001 46.075140385958335 0 -1 0
1435 1311 19 0 26.473627658781826 38.159353353190525 45.53992029824264 0 0 0
12490 0 19 0 24.394167824104265 42.70113802886267 48.96759653411258 0 0 0
15057 0 19 0 25.605293282445544 38.123773802297904 50.639512040778925 0 0 0
17733 0 19 0 6.596470997066886 46.266732701217784 45.05858402923276 0 0 0
17246 0 19 0 15.690144313829384 43.838289360323245 49.86721245043155 0 0 0
15936 0 19 0 11.55226876378684 45.07810445237045 47.044199035293346 0 -1 0
16473 0 19 0 10.074783198377848 49.82560283743289 48.880849778917955 0 0 0
17560 0 19 0 15.913242195319233 47.47544469425394 46.3710669158174 0 0 0
2639 0 19 0 20.192794286906032 44.65393577822042 47.47103080888116 0 0 0
14619 0 19 0 23.752838787881497 47.65677016969499 49.56611940247419 0 0 0
15713 0 19 0 20.459110730186104 49.336239000661145 45.15003374992149 0 0 0
17212 0 19 0 18.571877870845334 48.23286352185149 50.588572930789645 0 0 0
840 716 19 0 24.569008078300197 46.29436418250243 44.70867229594412 0 0 -1
13174 0 19 0 28.737107485271938 46.65157852518133 48.8579625761924 0 -1 0
1508 1384 19 0 31.816044736448227 47.19075816710693 45.3940636642481 0 0 0
1543 1419 19 0 27.654328088168132 50.48544535936329 44.571949565029556 0 0 0
17557 0 19 0 13.608170363663024 52.48340378744356 46.30347450788212 0 -1 0
17579 0 19 0 10.461847717790235 56.60211547061433 48.84103763769287 0 -1 0
17455 0 19 0 14.896903734181528 57.439045600008185 47.60295652654985 0 -1 0
17589 0 19 0 18.354575009355347 54.11275305836869 44.36587636338295 0 -1 0
1055 931 19 0 23.333920238370403 52.82327013826391 47.62945724543602 0 -1 0
15371 0 19 0 18.842958752294386 52.794925950551196 49.261116570106495 0 0 0
16329 0 19 0 19.864188183408395 57.8383965889217 49.24266189637722 0 -1 0
16894 0 19 0 22.549620861024223 57.96972472816933 45.195907846211945 0 -1 0
11026 0 19 0 31.46416672870733 52.022607958922336 47.32956573452743 0 0 0
1178 1054 19 0 27.576067990582562 55.359266347250255 45.42630217453466 0 -1 0
318 194 19 0 24.819265888943274 57.02097267877708 49.727077136273 0 -1 0
1517 1393 19 0 31.04473549414685 56.88275526507221 48.424490057643034 0 0 0
16054 0 19 0 7.335284020617454 32.53820567015225 51.12473785358618 0 0 0
17002 0 19 0 11.304661527350591 31.263737188271516 54.17749930441901 0 0 -1
15555 0 19 0 8.762283607823985 34.60931740841955 57.69152856454931 0 0 0
13934 0 19 0 22.34564040114781 34.12688440880041 51.382153872038586 0 0 0
16746 0 19 0 19.498478081027855 29.302232135958462 51.98224436729635 0 0 0
15856 0 19 0 17.25070991291007 35.88560122659681 50.995572691529816 0 0 0
16632 0 19 0 16.519214042525252 32.514437256235986 54.94738282281284 0 0 0
10002 0 19 0 22.365986957357112 34.524036206229866 56.35837348636741 0 0 0
17292 0 19 0 20.411721693874686 30.072112975297824 56.76900038308743 0 0 -1
12991 0 19 0 24.275027939764804 29.19456264786631 53.392836217256125 0 0 -1
1485 1361 19 0 30.095206629994742 35.32634586250217 57.052754279296266 0 0 0
15761 0 19 0 26.859768768682535 33.59131055449454 53.59445550908844 0 0 0
1537 1413 19 0 28.687493960870558 29.21744271989869 55.152236545215594 0 0 0
1251 1127 19 0 31.58509864097322 32.63638906115216 51.550658174517636 0 0 0
15625 0 19 0 13.144663789732478 37.030834561243 55.389025102995475 0 0 0
17395 0 19 0 8.477007830735078 39.09533178759699 54.3943191510801 0 -1 0
16342 0 19 0 11.463768432289779 43.010683467545185 52.834025894807205 0 0 0
16665 0 19 0 17.778510929164234 37.113859696207626 57.56537489269674 0 0 0
17499 0 19 0 19.479609635746844 41.81834843636906 57.18438682519777 0 0 0
17069 0 19 0 21.433346657379982 38.561044398742304 53.46852482825319 0 0 0
17273 0 19 0 16.360427749401733 40.30802208580923 53.83078562389812 0 0 0
12714 0 19 0 26.011455798124086 37.71331612007415 55.70815304113693 0 0 0
15680 0 19 0 24.50060878957674 41.89880433958493 54.754014758567486 0 0 0
810 686 19 0 30.13173214081367 40.81224154292873 56.34750639667128 0 0 -1
16738 0 19 0 30.222202604761545 37.29049926171002 52.81447178811492 0 0 0
14068 0 19 0 28.870928297698136 42.26841301113994 51.656062180215244 0 0 -1
17747 0 19 0 7.334308619822403 49.73346645569045 57.148955428498375 0 0 0
16100 0 19 0 7.502125605909201 46.84829472556049 52.54739785880066 0 0 0
15644 0 19 0 9.35126932001861 43.804863948358054 57.5450175470593 0 0 0
16292 0 19 0 13.269588572460576 47.26996953253745 52.05009149877296 0 -1 0
16320 0 19 0 12.786005419450674 47.49099584870715 57.20855345027083 0 -1 0
13604 0 19 0 21.089960197267217 44.02534871737843 52.45208625656747 0 0 0
16058 0 19 0 17.144576606671425 45.655280785185056 55.02018352061182 0 0 0
16530 0 19 0 16.768716828821656 50.49782613520456 54.53106202157538 0 0 0
13378 0 19 0 21.311575488270766 48.38722544962334 55.27808445419845 0 0 0
13424 0 19 0 30.53887997158176 49.06575412287135 53.09705927937522 0 0 -1
14657 0 19 0 26.099877388242003 46.601364331005975 53.85646922379798 0 0 0
10798 0 19 0 29.54541274594718 46.64693054626434 57.335925538435966 0 0 0
17753 0 19 0 8.745807275970762 52.82979763178942 53.508504104044114 0 0 0
13910 0 19 0 13.634279271642647 52.27040073112732 51.40070925503835 0 0 0
17512 0 19 0 12.846956884546051 53.974870961596785 56.49686361355304 0 -1 -1
17205 0 19 0 12.76265665743124 57.55594210379957 52.819656581079975 0 -1 0
16091 0 19 0 20.451492243597293 52.835672427641896 57.48184131910625 0 0 0
16118 0 19 0 17.256422062314524 55.504426393292135 53.421506908366695 0 -1 0
17508 0 19 0 21.611494568116125 57.60982034145473 54.28619472635751 0 -1 0
16783 0 19 0 22.449402019660557 52.60903334807945 52.63323352701763 0 -1 0
12951 0 19 0 31.847544690315267 54.74372927608392 52.701077319306 0 -1 0
13123 0 19 0 30.68061628117835 52.20965835539806 56.7173613639402 0 0 0
15775 0 19 0 27.69929500632381 52.27784187182828 50.836092846576356 0 -1 0
13932 0 19 0 26.402734563865312 56.47662858429996 54.85702330029962 0 0 -1
2533 0 19 0 26.060316232496096 51.083604353457304 55.479065698936694 0 -1 0
2163 0 19 0 30.6228498587314 56.993237337539846 57.177031732751914 0 0 -1
271 147 19 0 36.609603896768434 4.29274917993823 6.105271745234276 0 0 0
1421 1297 19 0 37.826793242724825 4.072587884692401 1.1050620247212541 0 1 1
14139 0 19 0 32.64506371442881 0.7061103584861416 6.806898849055764 0 0 0
6447 0 19 0 33.06360417289899 3.018323482562468 2.414179688239733 0 1 0
281 157 19 0 41.058930381834266 5.810633870117035 4.777423352270332 0 0 0
375 251 19 0 45.63562897313219 3.073378246584766 4.0390314020122835 0 0 0
240 116 19 0 41.22951524258128 1.2690058710710834 5.926794702106555 0 0 0
682 558 19 0 41.360371626765755 0.5631518429414283 1.0547168226581718 0 1 0
348 224 19 0 50.20570543036789 5.63455846289143 6.1118462960389595 0 0 0
1313 1189 19 0 54.42916678106193 5.356603278764781 2.512523601741211 0 0 1
166 42 19 0 49.858751678739864 3.5417232714570868 1.0988239958172465 0 0 0
412 288 19 0 53.36044852572795 0.5412845142967909 4.066384642623182 0 0 0
490 366 19 0 58.63671139327689 5.6170001018492925 6.619533402636794 0 0 0
1014 890 19 0 60.67297354283916 2.8436812842688997 2.3153393826945297 0 1 0
989 865 19 0 63.99480311545952 3.579343072472669 6.183017478992366 0 1 0
654 530 19 0 58.52238613537938 0.5840395176528677 6.060541607514246 0 0 0
710 586 19 0 56.7857779362746 0.6835557732819917 0.5347624152279234 0 1 0
632 508 19 0 63.68436198574927 7.047548564005044 2.2048785850287063 0 0 0
14659 0 19 0 34.64980199422679 7.695700379371781 3.463127357981213 0 0 0
1047 923 19 0 38.955865433285425 10.058683967145567 7.026040146467771 0 0 1
192 68 19 0 34.686070157692974 12.45301967429194 6.332534597033567 0 0 0
369 245 19 0 39.470358393472566 13.965072066436958 3.9286302658056096 0 0 0
162 38 19 0 39.02462481825069 9.319098241291236 1.9489458592449802 0 0 0
417 293 19 0 34.49497973337129 11.688165142695173 0.6187420061050697 0 0 0
399 275 19 0 46.730010998053395 7.90905637808953 2.4425383819699404 0 0 0
209 85 19 0 43.18965835456533 10.240347206724115 5.034946713768955 0 0 0
1275 1151 19 0 46.30933202683348 14.078791197543977 4.699047530942649 0 0 1
203 79 19 0 43.52546253237682 13.050425315013037 0.5559322292445914 0 0 0
378 254 19 0 50.02660808976771 10.744201039169006 5.465672581062759 0 0 0
506 382 19 0 55.028830228829676 11.599670246629719 3.183485873789228 0 0 0
1058 934 19 0 51.46190710201763 9.133213467582818 1.1817783799198955 0 0 1
1048 924 19 0 54.51514602868402 8.037867138953548 7.064644234388601 0 0 1
1633 1509 19 0 62.49565021892717 12.782510192342476 3.589681982763151 0 1 1
602 478 19 0 58.56656161993508 13.626245297688632 0.45482536881673175 0 0 0
1309 1185 19 0 59.86353979785476 10.610086342203513 6.9606621251255385 0 0 1
627 503 19 0 58.79121335409021 8.396224329840813 1.4812029633959114 0 0 0
377 253 19 0 34.168776041270306 16.70734265691393 4.542836878645008 0 0 0
1162 1038 19 0 38.61864161104095 19.110465399278734 3.0212210097945764 0 0 1
1249 1125 19 0 34.68682367599194 21.087699222201618 6.671900580168797 0 0 1
279 155 19 0 42.98286766170775 17.173125836388596 3.8267658539754192 0 0 0
371 247 19 0 44.57047777361473 21.30533026783133 1.4564072633902605 0 0 0
1139 1015 19 0 47.919174570901035 18.579050470146075 3.973017626301017 0 0 1
297 173 19 0 50.64500086881746 14.523807662397168 1.740594034542239 0 0 0
360 236 19 0 50.57307300789587 15.634001242086727 6.969494398832752 0 0 0
1355 1231 19 0 54.77893197581597 17.237839666670016 2.649735714397123 0 0 1
308 184 19 0 52.351881980819044 20.891449730245668 4.726905855668379 0 0 0
1302 1178 19 0 54.135097826015446 21.581540989086957 0.35858406488035116 0 0 1
652 528 19 0 58.57684744116951 15.298852003293831 5.248135929500856 0 0 0
558 434 19 0 57.54365676225118 21.19582024781788 4.942565568815126 0 0 0
608 484 19 0 62.60499902396362 18.674385511265633 3.389113605905426 0 0 0
660 536 19 0 58.56972570844395 18.95464180168204 0.45156132192854503 0 0 0
1179 1055 19 0 39.71542342932717 23.79183250197894 0.36010662763370155 0 0 1
317 193 19 0 37.68986825251315 24.67759100968904 4.546307003133205 0 0 0
1127 1003 19 0 34.875693315792034 27.246708866517146 0.22601097971968825 0 0 1
1262 1138 19 0 32.35726822153044 24.89590480609988 3.4458516252407145 0 0 1
1198 1074 19 0 35.42051397409107 22.197200536641212 0.2753712508463963 0 0 1
382 258 19 0 42.150672467276685 21.920232634869993 5.971818161226225 0 0 0
462 338 19 0 43.96441068365618 26.430333982393766 1.6842764739532448 0 0 0
212 88 19 0 47.26484280930498 23.58874377389151 4.839949493198629 0 0 0
196 72 19 0 43.01386667995724 26.400308749272636 6.9281099365919125 0 0 0
649 525 19 0 54.40205410910522 25.416408799391558 3.346443469043077 0 0 0
376 252 19 0 51.08123701720878 25.34756889874092 6.719086125639638 0 0 0
1171 1047 19 0 49.39028518963643 26.701194269763818 1.491322105685415 0 0 1
469 345 19 0 58.431412137186214 27.317121223877685 6.485473590966467 0 0 0
505 381 19 0 62.061180294057394 23.983663991467264 5.385745900564808 0 0 0
563 439 19 0 60.581958250791175 28.39749670224777 1.742904114346549 0 0 0
226 102 19 0 59.45971066155912 23.785777783369728 0.8472111115935701 0 0 0
472 348 19 0 64.11633853255766 22.127664259900666 0.5635861330584657 0 0 0
450 326 19 0 35.28584865549984 3.2542775981553147 11.182698447485095 0 0 0
383 259 19 0 40.128539889414476 1.5294320118381908 12.8484959717443 0 0 0
398 274 19 0 39.850087706529074 5.6306583848126355 9.723246892582308 0 0 0
440 316 19 0 44.465047990179826 1.9105106350321759 9.913322118870086 0 0 0
250 126 19 0 45.2729262065441 6.353854751838023 7.887962268933192 0 0 0
140 16 19 0 42.638697809320725 5.894135263430981 14.290063925369628 0 0 0
243 119 19 0 48.84542440417281 4.518956446358702 10.680457577094652 0 0 0
575 451 19 0 54.3070842913668 2.7540920281523333 8.065231983830857 0 0 0
1023 899 19 0 53.95014632496838 6.226368126848016 11.678202585741245 0 1 0
272 148 19 0 51.693702686131296 1.662402367771861 13.349515153614343 0 0 0
215 91 19 0 49.01706716750655 1.0686902367381532 7.3005229165381955 0 0 0
9858 0 19 0 59.45626880304783 2.92185626829296 10.467576894846438 0 0 0
596 472 19 0 60.4139825740008 6.43020292038389 13.93105988671619 0 0 0
497 373 19 0 62.77770916687468 7.0498964851269 9.09353472729966 0 0 0
323 199 19 0 38.14785406988022 8.045807579082505 13.109115102176103 0 0 0
254 130 19 0 34.868572081558476 8.392470746944767 8.87516245533829 0 0 0
395 271 19 0 36.839425552569324 13.41612913757401 10.759717381683775 0 0 0
327 203 19 0 33.18911723544946 10.998806350107284 12.403482105273454 0 0 0
391 267 19 0 46.072407557017975 8.815786403975416 13.097841064438898 0 0 0
174 50 19 0 46.393210390584656 11.599788475006516 9.177856360208882 0 0 0
206 82 19 0 41.51733892746523 10.806747928801425 11.016188094992701 0 0 0
211 87 19 0 42.08072760427277 14.413124652157103 7.996979824957227 0 0 0
578 454 19 0 50.25913173183455 9.163658336415217 9.970776530557998 0 0 0
520 396 19 0 54.38679011347097 12.707677711885571 7.821925211541861 0 0 0
611 487 19 0 54.12128910934432 11.38616640740155 13.59034342337807 0 0 0
633 509 19 0 62.59900820320077 11.628670626230276 11.16503585203834 0 0 0
564 440 19 0 57.80562810014307 9.128360938405537 11.097091649217766 0 0 0
717 593 19 0 38.057752040208065 17.177030450772538 7.629498409047932 0 1 0
342 218 19 0 33.54677268828152 15.547733544148112 14.09582877573435 0 0 0
451 327 19 0 35.93378420580077 19.230367740639004 12.246597653381281 0 0 0
437 313 19 0 33.040175030626386 15.948519148511604 9.338589787762727 0 0 0
260 136 19 0 39.15744048002253 15.405149323093298 14.480944039785468 0 0 0
388 264 19 0 44.48411564336051 14.624572948887673 13.132962561330627 0 0 0
231 107 19 0 45.63964453024618 17.800301344113187 8.12441761298881 0 0 0
351 227 19 0 41.38377718344433 18.822886594044114 11.451843029721315 0 0 0
134 10 19 0 46.80509467027706 18.68087302951279 12.658936466408438 0 0 0
659 535 19 0 50.445104195968206 14.847494481063645 11.886640814372146 0 0 0
1654 1530 20 1 54.551744317525426 15.329895019810989 12.759354557142679 0 0 0
415 291 19 0 49.36558770541529 20.93830527044445 8.735098120110019 0 0 0
638 514 19 0 52.097433845801824 19.673968380979947 12.489648009907794 0 0 0
616 492 19 0 54.86909019043499 17.448912416287826 8.190972455845532 0 0 0
539 415 19 0 59.88403355607322 18.986189513407716 8.198788753879064 0 0 0
471 347 19 0 58.17907993437399 14.630740632677314 10.936088688633957 0 0 0
9805 0 19 0 61.84033900214472 17.390027849390727 12.677055920965705 0 0 0
619 495 19 0 57.37542240914599 19.870805113493773 12.542270217229357 0 0 0
595 471 19 0 63.71924725884286 21.46005166272774 9.86873762564856 0 0 0
4977 0 19 0 63.68864746219304 15.276308417139143 7.6643169794555055 0 0 0
1668 1544 20 -1 39.91929852239239 22.256160695570365 13.079116919145466 0 0 0
446 322 19 0 34.48473480147396 26.038016918402796 7.871843766186949 0 0 0
1196 1072 19 0 38.405900053928804 22.643248687387846 9.562444381982784 0 0 1
422 298 19 0 36.87941969122477 28.08927682884328 12.290807773353057 0 0 0
338 214 19 0 38.46188472139746 28.827476703965512 7.703929061768167 0 0 0
230 106 19 0 44.21790576827339 22.69375678291325 10.25128434264126 0 0 0
258 134 19 0 41.08044885663276 26.098909270206963 11.393267304316502 0 0 0
358 234 19 0 47.745023614306895 26.667403426002025 9.646871163567281 0 0 0
173 49 19 0 45.435229645959176 26.37202244766468 13.834969616064868 0 0 0
661 537 19 0 54.16240426845385 22.119767574323912 8.744367052818061 0 0 0
1667 1543 20 -1 51.184355106158286 24.396915954444193 10.709897822659933 0 0 0
216 92 19 0 54.35444232174498 27.518604155940317 9.952323750002368 0 0 0
669 545 19 0 50.764680710499285 27.98397872548216 13.088807468203436 0 0 0
521 397 19 0 54.13851963598576 24.23806410817672 13.568942353501258 0 0 0
164 40 19 0 48.9417204106406 23.24584531825281 14.124054056869008 0 0 0
494 370 19 0 62.78394148523408 26.18272882169134 10.87940583091314 0 0 0
623 499 19 0 58.76178122508283 23.936860958613472 10.093397705465321 0 0 0
507 383 19 0 58.26070005080377 27.48986603601349 13.563102259694983 0 0 0
16726 0 19 0 33.52175905844313 6.868735316598971 15.93532989536091 0 0 0
175 51 19 0 38.54687256481717 4.327238394203735 16.331219191230797 0 0 0
755 631 19 0 33.92010404034449 2.6078017488055107 18.21244005850703 0 1 0
750 626 19 0 38.21828933983836 1.087641580074595 20.203777930514768 0 1 0
296 172 19 0 47.71444686542612 4.242141839585871 15.603587069487318 0 0 0
782 658 19 0 42.709695254894875 2.0836264900641033 17.695269722271096 0 1 0
692 568 19 0 46.86737334136707 2.706990196483441 20.122270384469847 0 1 0
411 287 19 0 44.81993620782641 7.2056318969336175 18.911422261806077 0 0 0
476 352 19 0 51.962275385447064 3.526040500920529 17.925073302514388 0 0 0
512 388 19 0 55.268313059069854 6.990984604042819 16.827414817810624 0 0 0
1013 889 19 0 56.06987564579172 2.1737915280362987 21.33625476597625 0 1 0
314 190 19 0 53.728991162978474 6.312256802086121 21.632574093006085 0 0 0
940 816 19 0 56.77650475169517 2.8201299684656753 14.812192082261628 0 1 0
1029 905 19 0 60.19396351481453 4.506733722377357 19.004777744377854 0 1 0
942 818 19 0 61.35026713598564 1.8119252223618716 15.561683515769392 0 1 0
198 74 19 0 39.30049107919327 8.37418609769063 19.397478137859565 0 0 0
349 225 19 0 34.64039695786464 9.801993547112279 21.028090017704514 0 0 0
249 125 19 0 36.63771793140666 11.575657641019948 16.4214471278043 0 0 0
354 230 19 0 39.6280633328555 13.13505002349402 19.941952910747506 0 0 0
229 105 19 0 41.747335254396546 11.137792259646012 15.785885351745453 0 0 0
220 96 19 0 44.93304012314959 12.208774346185116 19.714190411872295 0 0 0
447 323 19 0 48.19464717047344 12.152658653713049 16.144822242007567 0 0 0
653 529 19 0 50.45195075659383 7.7661337959838805 14.794490784990858 0 0 0
148 24 19 0 48.82182291376742 8.828876901498715 21.351968668447487 0 0 0
384 260 19 0 52.33827879309269 10.690865013063867 18.31769505614975 0 0 0
482 358 19 0 55.454108904821645 14.193252673345027 19.69537479052982 0 0 0
379 255 19 0 49.527961592183416 14.163890200484056 20.971844944603113 0 0 0
495 371 19 0 61.83941907506307 8.935095724118167 18.012820203532748 0 0 0
599 475 19 0 58.72024880891852 11.489535470214088 15.134754643682978 0 0 0
573 449 19 0 60.5852234712332 13.806466118903966 19.057847824421014 0 0 0
592 468 19 0 57.627399881340665 9.470343711009738 20.55595208446935 0 0 0
335 211 19 0 36.01539196052768 16.483158169954592 19.29709709321026 0 0 0
180 56 19 0 38.861942275247046 20.43838877296957 16.83942733636917 0 0 0
4990 0 19 0 33.35068306964863 19.94314405403558 16.320204172063878 0 0 0
305 181 19 0 37.834574019359394 21.01589235356238 21.663578847144702 0 0 0
186 62 19 0 42.45473413921308 17.157190747048702 17.91879691496585 0 0 0
329 205 19 0 47.523423506136865 16.56537561763596 17.40247049320527 0 0 0
322 198 19 0 43.783555185211505 21.434834381941958 15.070937654642243 0 0 0
268 144 19 0 45.970283179621134 18.878663136993815 21.5393233523441 0 0 0
574 450 19 0 52.37859716104876 15.438279500956387 16.219300127081382 0 0 0
1653 1529 20 1 50.10450956030051 19.524456136168453 16.173233054714895 0 0 0
478 354 19 0 51.83381959290969 18.25066455130025 20.458890257905512 0 0 0
640 516 19 0 54.75967001441016 20.08634213279151 16.60085594467742 0 0 0
510 386 19 0 57.33810000163427 16.11325562738026 15.553902442842425 0 0 0
562 438 19 0 62.89459930322518 18.105866363489643 17.375250455344172 0 0 0
670 546 19 0 57.867944002120794 18.94130889717852 20.628128764726775 0 0 0
1670 1546 20 -1 59.654912356816425 20.07010378232812 16.699167993654026 0 0 0
416 292 19 0 36.24743816638843 23.96422396151878 14.565049451394415 0 0 0
6623 0 19 0 34.22905724471152 23.434370949825084 19.5450842566499 0 0 0
267 143 19 0 33.223035472536274 27.37963552121054 16.346212781490625 0 0 0
410 286 19 0 34.14976256484817 27.942634930194583 21.225040769704375 0 0 0
151 27 19 0 38.82249524745946 25.850874429418212 20.803752285907105 0 0 0
301 177 19 0 42.496027549206666 22.080507469070703 20.09468772626523 0 0 0
241 117 19 0 47.40233755654424 22.429123615834204 18.53099917159922 0 0 0
256 132 19 0 40.796166623152814 25.30327055997425 16.017180930976135 0 0 0
345 221 19 0 44.501739728498826 26.4758513035784 19.183766483011304 0 0 0
350 226 19 0 48.8423354650047 26.957670692971725 17.371760764890873 0 0 0
218 94 19 0 52.51231386212064 23.844656230066754 19.613078676151915 0 0 0
237 113 19 0 54.232490953743486 28.032007944475403 16.833747119681473 0 0 0
92 1 3 0 51.305529595838124 28.688742344864064 20.98209951240894 0 0 0
674 550 19 0 61.603352496890444 23.067482802138745 14.587438016410431 0 0 0
635 511 19 0 61.43323832279466 22.52114934265604 19.934844599743283 0 0 0
481 357 19 0 57.317584013787034 24.653401901562717 18.50114178928184 0 0 0
591 467 19 0 61.87170731712823 26.969768796322477 17.811296929264966 0 0 0
700 576 19 0 32.89941950568809 5.824211839069149 27.83539592605709 0 1 0
721 597 19 0 33.60545033141132 5.133250241614055 22.895654702943073 0 1 0
898 774 19 0 37.1941948244746 2.5821741300644887 25.80234971635994 0 1 0
407 283 19 0 46.58281980066517 0.7503813209625082 25.55537534426425 0 0 0
419 295 19 0 40.69191804646752 4.669249110062516 21.78811977136343 0 0 0
276 152 19 0 41.4659672505936 5.62364351087676 26.65382016812475 0 0 0
1427 1303 19 0 47.636678231837266 5.018110792880712 28.23415011625116 0 1 0
261 137 19 0 45.32511757622914 5.487154320322652 23.546482870754463 0 0 0
289 165 19 0 50.045753261991834 4.167809539036107 23.595943415838185 0 0 0
372 248 19 0 53.431325663317274 1.7534990352104847 26.50706345339751 0 0 0
976 852 19 0 56.7063590359398 5.449729603679985 28.162270370089395 0 1 0
944 820 19 0 64.42067789713025 5.879690891033892 22.246388970616234 0 1 0
1036 912 19 0 62.35109931000278 1.4686642377972974 23.48146887647852 0 1 0
1602 1478 19 0 58.30395460315915 1.0093290575480782 26.05454777649072 0 1 0
589 465 19 0 58.93543805618189 5.290502661358741 23.570306347041846 0 0 0
999 875 19 0 62.722512986954804 0.15921016151603026 28.731835708997927 0 1 0
11403 0 19 0 33.1547418863528 10.158317145444784 25.665715310374377 0 0 0
288 164 19 0 38.010333530769785 12.867591351105128 24.612244347196246 0 0 0
362 238 19 0 37.61206199238807 7.859130406699578 24.510995697582736 0 0 0
1098 974 19 0 42.010168562923475 11.277058445539891 28.320984087230656 0 0 0
165 41 19 0 42.21615719213602 10.214301214683076 23.02468544927158 0 0 0
337 213 19 0 46.27914394179667 9.817039956878302 25.956434224091655 0 0 0
535 411 19 0 44.58205269380581 14.43254187544909 23.977479644296462 0 0 0
320 196 19 0 50.118827681851805 12.06216168800262 27.73782686237869 0 0 0
1059 935 19 0 52.29426532749032 7.425321469333329 26.72528219950284 0 0 0
225 101 19 0 53.050673547061535 11.13451529206484 23.538679280479776 0 0 0
569 445 19 0 55.07132411362999 14.34085758800312 27.403100444296385 0 0 0
929 805 19 0 62.651888027008354 9.127136861046363 27.33811334137816 0 1 0
667 543 19 0 57.18776566436191 9.686257053164837 25.764477864537888 0 0 0
605 481 19 0 62.15496882532612 10.537443137651229 22.531538179942004 0 0 0
479 355 19 0 58.85756322083248 14.061797263830973 24.215088837706414 0 0 0
609 485 19 0 59.57155414838174 13.230292518423147 28.961062322124793 0 0 0
12212 0 19 0 32.74912781835544 15.288140124339023 23.86359256537373 0 0 0
299 175 19 0 36.51897346766119 18.709259900483303 26.264905889292844 0 0 0
111 1 13 0 39.99337730661471 20.428158550456214 28.474717916738538 0 0 0
13425 0 19 0 33.08765835074836 19.83868454198401 22.428635750373545 0 0 0
428 304 19 0 40.13153276083139 17.06543200685797 22.521845039020164 0 0 0
108 6 15 -1 40.97758068078797 21.42518027664211 25.073388666121954 0 0 0
434 310 19 0 40.73545186573707 16.101631036274917 27.281574641158777 0 0 0
438 314 19 0 44.529746601658175 18.69412222765656 26.284058777840126 0 0 0
109 1 3 0 40.39070566361114 21.50301413016537 25.715979037415917 0 0 0
532 408 19 0 49.0801413736923 17.068731179821505 25.129801041373035 0 0 0
547 423 19 0 54.78647261774182 18.09970828678037 24.23804481721449 0 0 0
339 215 19 0 50.80782346154494 21.485667734678977 23.611468397673313 0 0 0
579 455 19 0 52.78159982206559 19.77659772459233 28.47478300050213 0 0 0
554 430 19 0 62.11350183125219 17.55126589102651 22.522291992419724 0 0 0
551 427 19 0 59.24855592072077 20.41683489575106 25.237114769370937 0 0 0
530 406 19 0 62.63438563415977 17.701407589260818 27.246348546185875 0 0 0
262 138 19 0 35.58793881098211 23.764365998688987 24.813226984005603 0 0 0
459 335 19 0 36.75399468950123 28.63970488450263 25.95629023715599 0 0 0
1647 1523 20 1 32.766242624779586 28.141020483290642 25.24636494193534 0 0 0
104 6 6 0 39.97482035947749 25.690062689258717 24.7929411285997 0 0 0
107 6 3 0 40.247945928656044 24.799117440865505 25.66771577579332 0 0 0
319 195 19 0 33.555583670115254 26.1516649813135 28.93933455350847 0 0 0
8 2 6 0 40.688425061625125 28.55418426612328 27.669240648172867 0 0 0
118 1 3 0 40.881128931975745 27.06403445496358 28.11578701523529 0 0 0
456 332 19 0 45.44701474225389 23.29713790172028 24.310467025932766 0 0 0
124 7 3 0 46.4812693265037 28.400791598610475 26.723878787044104 0 0 0
121 1 16 0 46.52109161997932 28.1100946570747 26.951835600265575 0 0 0
105 6 6 0 42.37980145256557 25.912894536766437 23.026914093323825 0 0 0
123 7 6 0 43.671042592924735 26.514775266882026 26.00239578264861 0 0 0
100 5 3 0 45.544780589233156 27.73400231545601 23.58898000922191 0 0 0
102 1 3 0 42.36819883831039 26.703587606678383 23.73633728373234 0 0 0
103 1 5 0 41.451243359815514 23.236852833331497 24.013511190306872 0 0 0
106 6 7 0 40.80928855010111 28.162678071573314 23.731549061579855 0 0 0
122 7 6 0 44.50954138167298 28.658904793998467 24.250035082569532 0 0 0
127 1 8 0 47.16285892038341 27.08073370244649 26.946674250833627 0 0 0
236 112 19 0 43.93342336309657 22.86964208032459 28.982179828873406 0 0 0
14 1 10 0 46.52426109513696 27.69304706427053 28.99426691613283 0 0 0
30 1 8 0 54.39023635086584 23.704407955589023 28.9937128780838 0 0 0
131 1 12 -1 52.148467059499986 26.41104397850187 24.348713492695197 0 0 0
98 5 6 36 51.4355481744185 28.990606278191503 27.159597300212056 0 0 0
130 1 1 0 55.051770219308466 27.481007207019683 21.887057165636374 0 0 0
90 1 15 -1 55.16596955157141 28.360169092235804 22.438638116208608 0 0 0
1666 1542 20 -1 48.35910876289454 25.036936271320045 21.89643072214466 0 0 0
19 1 3 0 53.36976892068435 24.58715686492645 27.51202585053206 0 0 0
129 1 4 0 54.90289681007909 27.206343977236184 21.829090135483245 0 0 0
128 1 3 0 52.28509590037589 27.04268793656478 23.39067430068277 0 0 0
525 401 19 0 55.74065037203013 23.179533471371908 23.66415613712274 0 0 0
93 1 12 -1 51.876783952329795 26.526988479178513 24.608371938532716 0 0 0
95 1 5 36 48.81606019529106 28.478284768135662 24.104287850820217 0 0 0
149 25 19 0 48.77380151817731 23.071764885375035 27.81209174148 0 0 0
126 1 13 0 49.95466147542132 27.202164758250543 26.172689124915692 0 0 0
671 547 19 0 63.95632115457199 22.262216101806057 25.272084077592556 0 0 0
22 1 3 0 59.76337239171725 24.720357603237023 27.454275478813106 0 0 0
620 496 19 0 59.724113362051675 26.230895180566858 22.57779256077 0 0 0
20 1 11 0 56.47811273875898 22.86529132503924 28.261163844275167 0 0 0
1663 1539 20 -1 56.488119039044165 26.82370909945241 25.721808483023235 0 0 0
24 1 9 1 60.08566002177243 24.983987937111905 27.509249001217565 0 0 0
473 349 19 0 63.74932323215006 27.3723235497782 26.116679639946327 0 0 0
21 1 4 0 56.59464420304617 23.198403927155102 28.08274381440984 0 0 0
744 620 19 0 33.538288126608165 5.981603135886069 32.99138956905576 0 1 0
239 115 19 0 39.06691819702722 4.464992051435429 30.68349193421765 0 0 0
699 575 19 0 35.46833482945021 1.1456271478763518 31.494921826389984 0 1 0
1411 1287 19 0 32.265894589900434 1.7593867417472744 35.27881642014592 0 1 0
202 78 19 0 40.31265490112279 0.3641872967319691 33.52327948942383 0 0 0
658 534 19 0 43.46295489950909 5.614125840203979 32.34406471002192 0 0 0
871 747 19 0 48.0447284694578 4.040163784014544 33.70256139086989 0 1 0
364 240 19 0 43.58657989710263 1.5542028158703733 29.22475855914405 0 0 0
313 189 19 0 55.78660708200472 5.913949477988637 33.79019913149066 0 0 0
1187 1063 19 0 52.74664488079655 3.336894734474795 31.219331239418615 0 0 0
1312 1188 19 0 52.11133047220254 3.675103460883384 36.16994638908629 0 0 0
1228 1104 19 0 48.83070935920225 0.7131371265142908 30.18009628772675 0 0 0
641 517 19 0 61.268178666838295 5.316092088674219 34.38233808856296 0 0 0
1565 1441 19 0 57.92847216873717 1.4745411831051185 31.9144518253048 0 1 0
1301 1177 19 0 61.635078257003215 0.9478015814646077 36.056799164059306 0 0 0
648 524 19 0 61.14010114632503 4.513887124251289 29.415828849409586 0 0 0
1197 1073 19 0 35.89191716394203 11.984889975627569 33.83574702624835 0 0 0
205 81 19 0 37.36971223162325 9.05811997479285 29.376200709977265 0 0 0
204 80 19 0 40.07002835523098 8.996378384378175 33.63076823166302 0 0 0
1199 1075 19 0 36.637712004556946 13.823993142234661 29.421036749369353 0 0 0
452 328 19 0 40.382226105828074 13.877112359554665 32.128028366805644 0 0 0
457 333 19 0 46.213749431408246 9.285644565428676 30.66011256694905 0 0 0
1106 982 19 0 44.87697888933151 9.710815142903991 35.35738803139686 0 0 0
172 48 19 0 45.854560753313145 14.183593904914481 29.662356035080954 0 0 0
155 31 19 0 50.891149684666544 8.57489936288438 32.294554566212355 0 0 0
1073 949 19 0 48.69910854102632 12.732303061022535 34.167819141140164 0 0 0
474 350 19 0 55.34456347722772 10.483960205657876 30.221344385618455 0 0 0
1194 1070 19 0 54.18615925573365 10.834780418353475 35.730888398084524 0 0 0
546 422 19 0 59.56633324414729 9.10297403934688 31.70499739883009 0 0 0
1321 1197 19 0 63.80402017353203 9.653980034658133 36.01624079900825 0 0 0
1322 1198 19 0 63.99637607842233 11.843599126525769 31.30703659593195 0 0 0
110 1 15 -1 39.80589773713204 21.098103936352476 29.068779666816226 0 0 0
1131 1007 19 0 32.32788206671789 16.275746164123415 29.29092939395737 0 0 0
1148 1024 19 0 35.83786177262858 16.422623879235715 35.76740554538086 0 0 0
311 187 19 0 37.71551080374278 18.1082074834438 31.66362236847631 0 0 0
324 200 19 0 33.2960093698732 21.161835261087962 29.905460650538064 0 0 0
1092 968 19 0 44.46991015968902 14.891570683383854 35.16494084868998 0 0 0
193 69 19 0 43.20608203079735 18.074421087570787 31.446358135672675 0 0 0
167 43 19 0 48.115080380073124 18.783146354293955 29.703278967100072 0 0 0
1133 1009 19 0 48.80386286687608 18.105662774523164 35.11696330697964 0 0 0
582 458 19 0 51.77145262937744 15.328334633539486 31.39469404032384 0 0 0
1314 1190 19 0 54.20768971392104 19.06565313828803 33.451690838436214 0 0 0
307 183 19 0 56.33139795054499 14.622492973060336 32.84325145107163 0 0 0
1356 1232 19 0 58.812534056699924 20.627642181351142 33.9954119727654 0 0 0
502 378 19 0 61.56893429259559 16.93882106227659 31.880480985853993 0 0 0
529 405 19 0 60.86977980027347 15.637110665644693 36.20996713074996 0 0 0
1292 1168 19 0 57.40101178768462 17.86725515332629 29.26421098963252 0 0 0
1258 1134 19 0 35.96242405552551 23.31223674380229 33.936636399032174 0 0 0
115 1 3 0 38.84996130760647 25.325719110944693 30.10857398777203 0 0 0
466 342 19 0 33.818336412120054 27.357002891671677 35.09941209492774 0 0 0
114 1 4 0 37.806317128028404 25.488720277405676 29.463211697219464 0 0 0
113 1 3 0 37.85232966219786 22.40049551012828 29.351747516225597 0 0 0
112 1 14 0 39.37077049804473 22.57360003558826 29.965240689508367 0 0 0
117 1 9 1 40.50051912875265 28.095224768637475 35.301379848748994 0 0 0
207 83 19 0 45.83790334668981 21.94487963142761 33.54555186753808 0 0 0
1065 941 19 0 40.815897717638144 22.73535262818978 33.87006144891223 0 0 0
11 2 8 0 46.588380517964346 27.62551566279945 31.852073761920128 0 0 0
116 1 8 0 41.078650101958864 26.553950495787394 31.8956039613636 0 0 0
119 1 4 0 41.66760372402814 26.071520829626742 30.887118813936237 0 0 0
5 1 3 0 40.87312312663813 27.796475305928105 34.3440159218476 0 0 0
10 2 3 0 43.13325033096702 26.625670338821276 32.21306783492201 0 0 0
6 1 5 0 40.855406939243494 27.475798219249935 30.46459167430071 0 0 0
13 1 3 0 46.715143776928706 26.240132416669148 32.022429449077805 0 0 0
35 1 3 0 46.79172465089675 26.51864743298629 35.67695911928139 0 0 0
125 7 4 0 46.488098269690454 27.385971173720474 29.60866774525212 0 0 0
120 1 3 0 44.3483236899194 27.38647157879473 29.121867763285717 0 0 0
38 1 4 0 46.23065758375645 26.892148523534388 35.65066237285717 0 0 0
7 2 6 0 43.170093432841256 28.97683963736371 29.274323743052978 0 0 0
16 1 10 0 52.17134679354161 28.363026008272513 31.935469103160138 0 0 0
413 289 19 0 50.35665634917113 22.449510347720175 32.32025590956019 0 0 0
36 1 4 0 49.73792530644484 26.653521475510757 34.95465312304776 0 0 0
31 1 9 1 54.92820317477754 23.83423397571772 32.736092921844616 0 0 0
33 1 3 0 49.857071222462025 26.743163826072582 34.807190031970734 0 0 0
32 1 4 0 52.94696299700534 26.31826633652719 32.93758091769569 0 0 0
34 1 12 -1 50.83570290010959 27.586131895390583 30.8154668829868 0 0 0
15 1 3 0 49.12980761678457 28.001264934701485 30.434155930203985 0 0 0
29 1 3 0 55.30455978608829 23.7963894297435 32.6782629508684 0 0 0
17 1 3 0 52.204180994451775 26.23776278103675 29.67357871236244 0 0 0
25 1 3 0 60.6597650443752 22.64450597964268 29.851498576280495 0 0 0
23 1 8 0 61.526444167673425 22.150985360866017 29.107146875630686 0 0 0
1397 1273 19 0 63.257858500347716 21.775848164631526 33.30791972516341 0 0 0
629 505 19 0 62.07216625677791 25.569596572138238 36.16204039667345 0 0 0
28 1 10 0 59.460236458998715 24.292111740770203 32.29798631672179 0 0 0
27 1 3 0 56.9760015473471 22.802075685023613 30.214249331105595 0 0 0
642 518 19 0 62.193641712757774 28.322428657641808 30.307068833412238 0 0 0
26 1 4 0 59.56371146601776 24.65725727205423 31.844686298274713 0 0 0
651 527 19 0 58.38227150054458 28.236275585915024 33.84900925534318 0 0 0
613 489 19 0 56.68402559901258 27.82726460762911 29.603712741622896 0 0 0
244 120 19 0 36.72558852432146 3.3745123852689973 36.33237472651705 0 0 0
1245 1121 19 0 34.01427130540178 2.8045543259380894 40.15195068143273 0 0 0
1209 1085 19 0 38.49577322357499 4.400981092206399 41.374345210320904 0 0 0
1456 1332 19 0 44.25999524222283 1.3614853835391574 36.435876248977344 0 1 0
1203 1079 19 0 41.27902731394562 5.641183592535564 37.263820975247434 0 0 0
1115 991 19 0 43.11949439855431 1.8411184905988442 42.03568717604963 0 0 0
518 394 19 0 46.13017601106037 5.455632279062991 38.81756280608968 0 0 0
1206 1082 19 0 43.51366921377856 6.7401597683298915 43.241974937084386 0 0 0
1557 1433 19 0 47.608394596412495 3.124257831585463 42.99343022503352 0 1 0
1095 971 19 0 50.66843334359537 5.342087920803035 40.62030036587814 0 0 0
1257 1133 19 0 54.710668596824924 6.8618174454043555 38.83717035906109 0 0 0
1513 1389 19 0 48.72123958739675 0.673649559061374 39.06353350547422 0 1 0
1572 1448 19 0 54.17912335993336 2.240265669181101 40.6289547021217 0 1 0
624 500 19 0 57.45862786381831 2.977948385758289 37.037619548809374 0 0 0
1323 1199 19 0 62.24899134342638 5.757464775141143 39.06248372948586 0 0 0
1393 1269 19 0 58.17627361017745 4.784646602055626 42.10635817067407 0 0 0
1319 1195 19 0 59.88638118180382 0.2755327815003245 40.40066724030418 0 0 0
1216 1092 19 0 34.490485070229745 7.5904642479111395 41.715088511989336 0 0 0
464 340 19 0 37.00138267357755 8.162861574138018 37.226029012100845 0 0 0
1241 1117 19 0 35.08800598871928 12.259409585201096 39.76825984435731 0 0 0
489 365 19 0 39.65597148061907 13.008488675550502 37.57769123575459 0 0 0
1149 1025 19 0 38.886478418940506 9.027571582473804 41.90732531087901 0 0 0
1081 957 19 0 39.64335239678601 14.31484703421303 43.30324421335377 0 0 0
1255 1131 19 0 43.07054538045813 10.562382875871627 39.96257736875356 0 0 0
1116 992 19 0 48.159677386692636 14.294316619050624 38.95112081417868 0 0 0
1220 1096 19 0 47.7062193760557 9.447384937745268 40.77712000642885 0 0 0
1142 1018 19 0 50.093138896145305 8.408028079374999 36.832640911782924 0 0 0
1298 1174 19 0 53.19116618340627 8.849356094419846 43.29328355546402 0 0 0
1093 969 19 0 52.12113873214332 11.684850394850747 39.58438295008316 0 0 0
607 483 19 0 58.68292250962834 8.564315044484138 36.86172869986456 0 0 0
513 389 19 0 61.8788215667455 11.865534421900833 39.9199641047792 0 0 0
1287 1163 19 0 57.49416490357437 13.790234581067093 38.97093967260358 0 0 0
587 463 19 0 57.78248324834814 9.72301338560396 41.56416414285464 0 0 0
1671 1547 20 -1 35.975367039021215 20.380265189324724 36.8782808544166 0 0 0
1045 921 19 0 40.129581200976254 18.682891153418105 36.58631435166568 0 0 0
1155 1031 19 0 32.42819433256022 17.584266348899284 39.10164467886274 0 0 0
1218 1094 19 0 37.23528675642911 17.217488502850266 40.27253945119423 0 0 0
1123 999 19 0 35.70514626003159 21.68046860801458 41.954244133838024 0 0 0
1105 981 19 0 44.33698621507623 20.354893085473062 37.79999582853865 0 0 0
1041 917 19 0 43.61705091628453 15.869512109807276 39.92976147064366 0 0 0
1146 1022 19 0 40.881118900372776 20.29552293377721 41.69457020779134 0 0 0
1109 985 19 0 45.89082398932965 21.492154729920028 42.51926704362701 0 0 0
1648 1524 20 1 47.36844587002435 18.40573227278676 39.59765265184751 0 0 0
1219 1095 19 0 48.21691891538739 16.4789002195963 43.255534378828784 0 0 0
1347 1223 19 0 53.975799585686666 15.369581174792833 42.69743904408657 0 0 0
617 493 19 0 52.946666552154696 15.520950429661687 36.61475222371905 0 0 0
1066 942 19 0 51.85553019583904 19.267875801586154 40.18395592281851 0 0 0
488 364 19 0 64.35598445362324 20.695509955571644 42.27977633750414 0 0 0
1165 1041 19 0 57.000512535975844 18.51618954366981 38.16392489767665 0 0 0
1293 1169 19 0 62.66221887688577 16.52692192849204 41.50417492760633 0 0 0
631 507 19 0 62.07376473361083 20.774777105618917 37.72797296105163 0 0 0
1390 1266 19 0 58.784356804169256 19.22273038255049 42.72501367338768 0 0 0
3 1 3 0 38.33219629077677 28.148720724379874 36.35356330042093 0 0 0
1046 922 19 0 38.42703873560402 23.35699401731604 38.22033200976583 0 0 0
1144 1020 19 0 36.12867457953512 27.036883235342252 40.329484057122734 0 0 0
1180 1056 19 0 32.984806514963125 23.709736132519563 38.02502953203724 0 0 0
1215 1091 19 0 42.991327686443654 25.0860651214503 37.99427000261018 0 0 0
1404 1280 19 0 46.8004481263737 26.237327108111185 40.702433705831744 0 0 0
1166 1042 19 0 42.72438504216812 25.28461683975874 43.116097056017566 0 0 0
1160 1036 19 0 53.0641375469381 22.205965637489825 36.550607271276995 0 0 0
1380 1256 19 0 55.542068861486506 22.24971628770527 41.4125708042965 0 0 0
1201 1077 19 0 48.68149878487813 22.3510742128855 38.23834472088473 0 0 0
1039 915 19 0 51.60578936981682 26.1274627867236 38.982949685308235 0 0 0
1359 1235 19 0 55.351844436479226 27.326444801202527 41.88494075672467 0 0 0
1353 1229 19 0 60.256278986271035 24.175959716328943 41.579990021755314 0 0 0
1337 1213 19 0 57.76971992322167 24.01133860504036 37.37608291883418 0 0 0
1096 972 19 0 59.36608348136507 28.43861048631107 39.017828754881094 0 0 0
12210 0 19 0 32.52246467188733 4.944076580570738 49.59085277629052 0 0 0
1530 1406 19 0 35.33684213774194 1.874147638078051 45.48539168448688 0 1 0
1238 1114 19 0 36.30614845109754 6.686352713559184 45.8265415532378 0 0 0
1473 1349 19 0 41.717261583059376 1.0342274894772743 50.37862812700267 0 1 0
1250 1126 19 0 40.37499159162159 3.1113196204202254 46.32281620474353 0 0 0
1089 965 19 0 45.04315178032845 5.087585853576506 47.75679312218877 0 0 0
1425 1301 19 0 44.698588745629465 0.042368404403407965 46.57705370244967 0 1 0
1124 1000 19 0 41.8318609813049 6.711156560409116 50.69294705292065 0 0 0
1158 1034 19 0 49.39517039300703 0.974531995667095 48.00145513349392 0 0 0
1340 1216 19 0 52.59146259419004 3.06045472586592 44.94609944411428 0 0 0
1279 1155 19 0 53.317090994063925 7.118324132620824 47.759667528571875 0 0 0
1038 914 19 0 53.747491851340975 2.480224803180939 50.616364376352415 0 1 -1
1044 920 19 0 49.79340660289548 5.590506479408949 50.575395887622 0 0 0
1624 1500 19 0 57.3588818323581 3.0929101158963657 46.89810298247583 0 1 0
1326 1202 19 0 62.19946890090793 4.847036778490817 48.062135902935275 0 0 0
1597 1473 19 0 61.57160027714486 0.23938032202274992 45.0539101571854 0 1 0
1154 1030 19 0 34.86754588118533 11.807457656032781 44.329834904887 0 0 0
13542 0 19 0 33.372183829688105 9.445916768491898 48.57799321634412 0 0 0
1112 988 19 0 36.5573085609669 14.383728899450828 48.03702013781524 0 0 0
142 18 19 0 44.73659567705519 13.112291453426375 43.665708239302255 0 0 0
1234 1110 19 0 40.45348467081225 9.513417353634459 46.32112745895327 0 0 0
1224 1100 19 0 45.247957239232925 10.123151054056315 47.47883595289184 0 0 0
1067 943 19 0 41.59942427228008 14.097160995072349 48.10856458702065 0 0 0
565 441 19 0 48.72960982268715 7.351820641919745 45.14948648379071 0 0 -1
1070 946 19 0 49.65874105724314 12.265074702151612 44.17673451942178 0 0 0
1168 1044 19 0 50.66486776017267 10.835211473797964 49.01549083399157 0 0 0
1231 1107 19 0 55.15868545089451 12.700147872812224 46.32923095765233 0 0 0
1270 1146 19 0 59.05467062934133 14.016364939419317 43.8621594574355 0 0 0
1410 1286 19 0 62.228107426397635 7.515993338514504 43.75335258009331 0 0 0
1174 1050 19 0 58.0482002043201 8.726693812367284 46.83706256843812 0 0 0
1304 1180 19 0 63.771484515880914 9.453780822711854 48.78758656618795 0 0 0
1365 1241 19 0 59.96229216696525 12.692379860095865 49.06294119879497 0 0 0
1398 1274 19 0 63.42438721893264 12.464338462549286 44.65099211986528 0 0 0
1637 1513 20 1 64.28010140813463 14.204963831814018 48.730148848333776 0 0 0
1091 967 19 0 34.09941947263741 16.650262271455077 44.4174595491764 0 0 0
1190 1066 19 0 38.457567894396 18.478340220651383 45.53591580442023 0 0 0
1043 919 19 0 33.668587481916006 20.92600149794213 47.101497443943096 0 0 0
1087 963 19 0 46.587878596583195 15.095673115640755 48.987754160502945 0 0 0
1110 986 19 0 43.40747347938848 17.5755378438525 45.30671737494454 0 0 0
1222 1098 19 0 43.08076434521795 18.315695273330657 50.42223117049889 0 0 0
1138 1014 19 0 48.02851345773228 19.75897335859045 47.26743111815201 0 0 0
1211 1087 19 0 51.22350289887526 16.10714803847226 47.88708479955426 0 0 0
1214 1090 19 0 53.09546069446516 19.61187927012111 45.177786074993755 0 0 0
1064 940 19 0 53.90036357038715 19.87622940316416 49.98594981532302 0 0 0
1382 1258 19 0 57.6343364359226 17.34386191575962 47.47985444688152 0 0 0
1344 1220 19 0 62.29879265438555 17.19525051623121 46.30348097180088 0 0 0
1315 1191 19 0 58.74576383975005 21.391414605564908 49.882796880831336 0 0 0
1104 980 19 0 39.36583644674748 21.826386332085104 50.04931872713086 0 0 0
2463 0 19 0 33.98316088314857 25.543895550814057 44.890276873676946 0 0 0
1085 961 19 0 38.44445939103088 28.24354980151116 44.55431699255235 0 0 0
1100 976 19 0 38.72056599654262 23.43424208203826 45.31084632445284 0 0 0
1053 929 19 0 36.80246490416827 26.538103051056016 49.127418207817634 0 0 0
1204 1080 19 0 47.55492927398906 28.666510214655844 48.81823190050366 0 0 0
1103 979 19 0 43.552600079521355 22.233349793253545 46.581455380245075 0 0 0
1049 925 19 0 41.79003664450343 26.048622178824047 48.53572101762337 0 0 0
1253 1129 19 0 47.05646428769558 25.16692696985486 45.7111725179577 0 0 0
448 324 19 0 45.575354822275585 23.849204181564915 50.566030604385794 0 0 -1
1084 960 19 0 51.38603838815798 24.08064160641705 43.65208377351801 0 0 0
1172 1048 19 0 52.88784482167644 27.187357790535692 47.320399550285835 0 0 0
1242 1118 19 0 50.35344690518342 23.48970126457295 49.307832232316656 0 0 0
1297 1173 19 0 55.91841936655725 23.448070427653757 46.422617164023265 0 0 0
1328 1204 19 0 63.75241808796086 26.74207298142985 47.467081113596656 0 0 0
1371 1247 19 0 59.192417269797026 27.569940449632654 45.21134522010762 0 0 0
1230 1106 19 0 61.73885185755484 22.23824016970081 46.108879250305606 0 0 0
1510 1386 19 0 37.338690492440435 5.535950809767267 50.92964723685503 0 1 0
9700 0 19 0 35.59329441688288 0.7653027110440666 50.95506932838536 0 0 0
12020 0 19 0 33.58954854896448 3.605582792835239 55.09951466226653 0 0 0
1502 1378 19 0 38.10052837828238 7.059216271867887 55.414048699061986 0 1 0
890 766 19 0 39.356980092137604 2.294927067446524 54.86941525214961 0 1 -1
316 192 19 0 46.20690995962921 1.0585795591036418 57.30075049847778 0 0 -1
1521 1397 19 0 44.711451023234375 3.4758461807425123 53.08582205184137 0 1 0
772 648 19 0 47.904749134230435 6.325095497037608 55.497295613729165 0 1 -1
444 320 19 0 42.49003366122813 5.161862804187891 57.66149584144679 0 0 -1
1076 952 19 0 49.14625699188734 1.9731664360287733 53.60340382849473 0 0 0
537 413 19 0 53.27439623515882 4.3231366974002725 54.964705332340515 0 0 -1
9455 0 19 0 63.28015089337934 1.3300912002411416 51.47911221248382 0 0 0
1387 1263 19 0 57.728922361890106 5.54697581450019 51.075179726634225 0 0 0
628 504 19 0 63.082575712186724 4.559355026217573 55.61884214483723 0 0 -1
807 683 19 0 58.45393871966074 4.779520190032061 56.194779331276976 0 1 -1
259 135 19 0 38.37970385144577 10.630784320837977 51.17888720699935 0 0 -1
367 243 19 0 38.87394110329497 12.367268693121456 56.20815317117133 0 0 -1
468 344 19 0 33.822126079826496 8.525848291175228 53.429652970366554 0 0 -1
1101 977 19 0 34.754425137065944 13.639453858780273 53.41998169866221 0 0 0
1662 1538 20 -1 42.64679339660563 10.852416026848932 50.924003789762345 0 0 0
432 308 19 0 46.68642847097034 9.483867581411669 51.7043088620216 0 0 -1
1120 996 19 0 42.60340301653446 9.33957238692112 54.928755820782584 0 0 0
1128 1004 19 0 44.49314799705212 13.892777294957837 53.26035330857173 0 0 0
393 269 19 0 47.367329686685295 11.111194879379326 56.44753815024593 0 0 -1
1343 1219 19 0 55.426387894893764 10.310738694383051 50.77074776849966 0 0 0
291 167 19 0 51.39295360821895 9.679663402087286 53.78367289244982 0 0 -1
1189 1065 19 0 49.41508837808678 14.3528836174036 52.874407469007366 0 0 0
679 555 19 0 54.088098282886506 13.35917509229539 56.08639002179038 0 0 -1
1577 1453 19 0 55.8830982007865 9.010157366555218 55.765226363980645 0 1 0
1357 1233 19 0 64.20154966891653 12.327568790629382 52.45971228114528 0 0 0
1352 1228 19 0 61.44679432362186 8.262708009528442 52.66527596540703 0 0 0
517 393 19 0 62.19038552988574 10.789352713672372 56.95187260681295 0 0 -1
1391 1267 19 0 58.92627521545936 12.764199947063048 53.449270042550665 0 0 0
1140 1016 19 0 35.96128847183321 18.957542352597766 50.8893649584835 0 0 0
189 65 19 0 33.09492437337862 19.538779372594366 54.651936310524306 0 0 -1
1263 1139 19 0 36.59216677193138 16.497074333064052 57.540500403704655 0 0 0
429 305 19 0 39.27972190361263 15.833672470813282 52.70002644779809 0 0 -1
1191 1067 19 0 38.51964177150643 20.228670899547666 54.738956290873546 0 0 0
1111 987 19 0 46.582396211092195 17.044881130826962 57.26843112144546 0 0 0
1134 1010 19 0 41.68024964693167 17.089187504494365 56.860332276497154 0 0 0
141 17 19 0 44.02260696835112 20.992060740401712 54.56958092050123 0 0 -1
1181 1057 19 0 48.015552601366096 19.70546682872217 52.197828037178375 0 0 0
389 265 19 0 49.23186317787555 21.604852562879998 57.964962856043066 0 0 -1
1273 1149 19 0 54.3252992701142 15.013396822260114 51.402902404519025 0 0 0
1264 1140 19 0 52.1803440889363 17.889051341182896 55.29651862111799 0 0 0
567 443 19 0 62.93076766579412 15.8324848937018 57.05661608314974 0 0 -1
598 474 19 0 61.42262775194557 21.051705037290187 54.5006114371702 0 0 -1
1291 1167 19 0 61.37810799358855 16.537722633743943 51.4531699542527 0 0 0
1057 933 19 0 57.48572960997216 17.88435530489414 53.89491022544221 0 0 0
333 209 19 0 38.79107118728675 28.856316131648338 55.806195873855465 0 0 -1
1114 990 19 0 34.156183315417735 28.72807828949352 52.76749210061661 0 0 0
1054 930 19 0 36.888440205456085 24.664322950835523 54.025019589092985 0 0 0
1080 956 19 0 32.67406707977097 24.38916488793624 51.30845553397653 0 0 0
1239 1115 19 0 42.097103920783915 25.591010688711098 53.93079051037606 0 0 0
409 285 19 0 48.24698265231473 25.93422707806384 54.147838508894964 0 0 -1
1373 1249 19 0 51.93729508218552 22.40206285397667 53.71444162386989 0 0 0
1378 1254 19 0 55.23952104164421 25.323519616583333 51.242984666049395 0 0 0
1288 1164 19 0 53.68333446551896 26.21290564291461 56.649935350663874 0 0 0
1320 1196 19 0 57.16397430180541 22.744566263246053 54.74234011040966 0 0 0
1280 1156 19 0 58.010066923074675 27.546171713592212 54.61242290010952 0 0 0
499 375 19 0 62.90645322430899 25.679796609271467 55.675613287237326 0 0 -1
1406 1282 19 0 60.168513980840096 25.777317301771433 50.856027631842835 0 0 0
857 733 19 0 34.80496664675859 35.5286146404016 2.7141487404050255 0 0 0
1129 1005 19 0 35.045444455658206 30.52257141609163 4.314300095695301 0 0 1
270 146 19 0 39.49657617120415 29.359350045002884 2.576140960363714 0 0 0
1050 926 19 0 39.200964157175115 34.136599069947245 0.6345146417213919 0 0 1
278 154 19 0 42.90729807194392 31.860378474523042 4.754508245025177 0 0 0
176 52 19 0 47.35832350247956 33.51767026566064 1.8719502271928226 0 0 0
233 109 19 0 47.15985742603185 29.396670659823446 5.486937415126879 0 0 0
310 186 19 0 50.7288782113622 35.122439435492936 5.124097006686862 0 0 0
1396 1272 19 0 53.664274015769784 34.89135771525772 0.8094008275071755 0 0 1
606 482 19 0 55.65456703831216 29.92546412163744 1.137147863217915 0 0 0
1290 1166 19 0 51.96924453099366 30.677386792166708 3.9737201953343995 0 0 1
947 823 19 0 59.92406106761272 33.57033099449036 5.651789669011612 0 0 0
1405 1281 19 0 63.22910329234962 32.34224684440587 1.8185305123532496 0 0 1
556 432 19 0 63.12179165083063 29.21706087059379 6.244690345168976 0 0 0
302 178 19 0 38.311960710584 39.93308111720813 0.9899224363659593 0 0 0
719 595 19 0 35.107265157271264 40.48433599987361 4.771769213342527 0 0 0
1501 1377 19 0 39.56469991781722 42.533098356192156 5.436098435499904 0 0 1
739 615 19 0 40.078822011410395 37.18077105126874 4.586272243784118 0 0 0
1176 1052 19 0 45.118097631576546 36.44193451221445 5.0380827894127735 0 0 1
1175 1051 19 0 43.63038980154222 40.29891124206117 2.2205048327832326 0 0 1
788 664 19 0 47.10810929165261 42.51428362788705 5.174609792993888 0 0 0
1414 1290 19 0 48.170047083183555 38.353076850292965 1.3160608686248723 0 0 1
730 606 19 0 52.60553711934506 40.11786927046865 0.12181814912466833 0 0 0
870 746 19 0 56.2193302594485 36.74226972372151 4.836357906168345 0 0 0
449 325 19 0 52.148365604310136 40.05051745202919 5.397746864356644 0 0 0
965 841 19 0 60.214659337598746 36.63539129774542 1.704911104735901 0 0 0
1599 1475 19 0 61.69992750739661 41.052816013544756 3.3714746559070994 0 0 1
828 704 19 0 56.54057683775833 41.79770222098347 5.08173510440624 0 0 0
891 767 19 0 57.40555369254664 40.38199465948266 0.6087533111459091 0 0 0
1440 1316 19 0 36.78079332833608 45.243841156490646 2.8636458887736964 0 0 1
767 643 19 0 33.824842788159415 48.645271518397365 0.6162938586329426 0 0 0
888 764 19 0 38.034997416265284 50.29615979882672 3.3674456957535184 0 0 0
12469 0 19 0 33.342918520228494 49.07515990276086 5.58866242448561 0 0 1
1463 1339 19 0 41.260750110564125 44.82562521818853 1.1715783384616294 0 0 1
1638 1514 20 1 43.731185905958 44.359232374589745 6.9908406348424705 0 0 0
774 650 19 0 41.94111330715751 49.93551035413101 1.0360364985618988 0 0 0
827 703 19 0 46.053072805975226 46.83917498423584 2.0504407848630315 0 0 0
880 756 19 0 40.95428413896408 47.097589061382465 5.711805678697006 0 0 0
784 660 19 0 51.02801182562074 44.341736866883274 3.108522038879381 0 0 0
922 798 19 0 54.721687800596754 46.44131634788275 6.157817328914914 0 0 0
704 580 19 0 52.342355632716824 48.8390064053166 2.0897819489028424 0 0 0
737 613 19 0 48.565245230804976 47.46961999642139 6.120574424699261 0 0 0
975 851 19 0 55.743126167411866 44.746997559465214 1.6017815715099437 0 0 0
833 709 19 0 57.072074309835365 49.634629726577394 2.601884691680391 0 0 0
972 848 19 0 59.783259133677106 45.58864091298199 5.24656417769599 0 0 0
1461 1337 19 0 60.36451173204596 44.5873244978535 0.21852125254210947 0 0 1
847 723 19 0 34.36225262669555 53.712958655793074 1.8297179470968423 0 0 0
2504 0 19 0 40.16453388538732 54.565207487128816 5.418082455911971 0 0 1
1420 1296 19 0 39.23958165264888 53.83144607070274 0.06344848226276376 0 0 1
884 760 19 0 35.411557488709754 53.340389785111 6.698605125696124 0 0 0
265 141 19 0 36.60821829198993 57.632396984477374 4.0674653679401365 0 -1 0
753 629 19 0 47.914371182840355 51.555101381851514 2.0947214962676117 0 0 0
723 599 19 0 44.241709218377856 51.00528924683843 5.207303704499065 0 0 0
786 662 19 0 44.03075127122739 54.56794991095155 1.345318619195012 0 0 0
724 600 19 0 44.821442912812195 55.72655426283994 6.313671081562929 0 0 0
856 732 19 0 48.22847161343224 56.698744150843716 3.3363735145256954 0 0 0
752 628 19 0 54.366921874370135 51.12891035742712 6.956699103956333 0 0 0
1027 903 19 0 52.44326434074001 53.860797993788246 2.847238377562849 0 0 0
754 630 19 0 49.20203260337133 52.976899912382805 6.694842189278648 0 0 0
2573 0 19 0 61.13172907236143 51.327095689647116 4.96596625883015 0 0 1
1017 893 19 0 57.1596048795103 54.428106916106785 3.9557641529139045 0 0 0
926 802 19 0 62.75312867068382 56.406539263357196 6.172901847088444 0 0 0
1028 904 19 0 61.11834780209349 55.9696637914907 1.1787212201691017 0 0 0
1060 936 19 0 37.9412163137082 34.11835111105008 7.635608879022007 0 0 1
431 307 19 0 34.2632592975452 30.91806119402825 9.294879237809885 0 0 0
443 319 19 0 39.33493875247749 32.33068489012264 12.249438875713096 0 0 0
178 54 19 0 32.87464291061477 35.76441583243812 7.434363552534571 0 0 0
197 73 19 0 43.95189416456064 30.624021149048758 9.989249942763072 0 0 0
328 204 19 0 42.331922522750894 35.84106040059287 9.667539674170525 0 0 0
465 341 19 0 43.35338662778465 34.60112890380349 14.363025504339774 0 0 0
182 58 19 0 47.60714946460871 34.35783683828357 9.612374182905699 0 0 0
309 185 19 0 47.02968619313797 31.09005462833445 13.98115417950103 0 0 0
1025 901 19 0 55.50998881434553 31.919275999137742 7.531910936300527 0 0 0
326 202 19 0 50.726344724149676 30.383342294610582 8.867788306304666 0 0 0
347 223 19 0 52.46913381938872 35.15889822114562 9.366936634465294 0 0 0
1644 1520 20 1 50.52011889993367 32.73049276354294 12.440276185496066 0 0 0
568 444 19 0 54.57133877354905 32.073266707549585 13.258806265305878 0 0 0
918 794 19 0 59.62127099070834 30.916514774003392 9.965077209175229 0 0 0
987 863 19 0 63.023963229778936 35.65052448952835 10.698090243668712 0 0 0
561 437 19 0 57.24862897539599 35.19959765316139 10.418206131614197 0 0 0
483 359 19 0 62.10715828051117 30.42353213311 14.4429344711118 0 0 0
773 649 19 0 32.388162980217594 42.30774729836637 8.274849449906442 0 0 0
221 97 19 0 34.24985317712401 37.82013990569103 11.823101428329828 0 0 0
418 294 19 0 36.29854741786615 42.87255320121188 11.52313865049609 0 0 0
245 121 19 0 37.96689994550034 39.03955748078953 9.045272483908334 0 0 0
794 670 19 0 45.7773306683974 38.45757413268826 12.153899126760066 0 0 0
801 677 19 0 41.061037193084005 39.681214584921506 13.59813438070238 0 0 0
711 587 19 0 43.626191729922645 40.10008799943034 7.801758602127444 0 0 0
733 609 19 0 46.59272586569133 43.20623867444942 10.408251630521212 0 0 0
889 765 19 0 52.919059403153945 36.65670851292302 13.877063613156222 0 0 0
760 636 19 0 51.20761912800783 43.49926312789573 8.881420066037531 0 0 0
887 763 19 0 48.5428239339636 38.74282071711073 8.44040846402784 0 0 0
846 722 19 0 54.796887983121444 39.68644156622438 9.439781544931023 0 0 0
1664 1540 20 -1 51.32472588595859 39.589673856507275 11.449695099018752 0 0 0
960 836 19 0 54.588306471161985 41.80494320686673 13.930352879438107 0 0 0
622 498 19 0 60.362716212102015 38.337381531271255 7.26863905424286 0 0 0
1031 907 19 0 62.32348129182185 43.15668115290453 9.09153075664955 0 0 0
971 847 19 0 58.782904861644646 39.07712991300691 12.907590011855353 0 0 0
951 827 19 0 63.49209446983202 40.1739463695395 12.612806640285614 0 0 0
783 659 19 0 36.58130509505566 45.96990218892063 7.622819501711195 0 0 0
1646 1522 20 1 34.61147488101366 50.387941119103886 9.665484841363611 0 0 0
866 742 19 0 37.66435131982863 47.93820921057834 11.859483022729327 0 0 0
768 644 19 0 33.1012904209123 46.68916483402272 11.370882646064144 0 0 0
861 737 19 0 41.598646242160335 43.734734921198985 10.630824761439872 0 0 0
872 748 19 0 44.22977233811818 47.932142018564086 9.443390016570554 0 0 0
851 727 19 0 53.95039267601355 47.519556937450325 11.408861784698814 0 0 0
707 583 19 0 49.50961316225205 49.615048220109955 11.148171571502994 0 0 0
817 693 19 0 50.61220396319383 44.80916934615776 13.910288136514398 0 0 0
493 369 19 0 57.41455467837208 44.082689407037606 9.924949693967205 0 0 0
738 614 19 0 58.4046116350052 48.77736306152802 8.75296981950106 0 0 0
928 804 19 0 58.53341172813377 47.04356420609037 13.710824179182891 0 0 0
936 812 19 0 63.450159189849394 46.33697736476156 12.984409036140855 0 0 0
902 778 19 0 63.473877022727685 47.875331688273356 7.81667018056469 0 0 0
680 556 19 0 39.79809450965884 51.09278138244012 8.48733476644744 0 0 0
813 689 19 0 37.245839112592456 57.44070927165659 8.940657078216333 0 0 0
714 590 19 0 37.18152050247539 53.27587445731839 11.77994659963809 0 0 0
698 574 19 0 35.543549556991316 57.08874178207957 14.367577438389842 0 0 0
390 266 19 0 32.850047301242995 54.737659985788675 10.56503099171858 0 -1 0
859 735 19 0 33.80603121870615 51.08545436418703 13.841310903404885 0 0 0
778 654 19 0 41.70104272096439 50.88567982319056 13.1248182783266 0 0 0
709 585 19 0 45.64989994365808 53.007044145671394 10.441437758347572 0 0 0
749 625 19 0 44.32904120577828 57.111554665019895 14.490510363120546 0 0 0
1545 1421 19 0 41.511990923672684 55.48524342860352 10.961766548966926 0 0 1
825 701 19 0 48.25128298390869 56.86788457546212 11.490918375557452 0 0 0
597 473 19 0 56.25268170133749 51.93698244814719 12.049593678994661 0 -1 0
445 321 19 0 52.91509908620039 56.007142965331774 8.620284394726268 0 -1 0
500 376 19 0 51.46204733433133 53.807257270847714 13.889919152639958 0 -1 0
921 797 19 0 61.60154721615466 51.309066631195925 11.684952584506481 0 0 0
914 790 19 0 56.85861165811812 56.86914294023361 11.270290570819451 0 0 0
1003 879 19 0 58.67982167062227 53.83152088605477 8.367705366605051 0 0 0
1012 888 19 0 62.92611926002229 55.937902120245504 11.468855211844236 0 0 0
404 280 19 0 37.64006930375194 29.36443192319129 17.52181162100687 0 0 0
234 110 19 0 34.438858788447426 32.09206922335718 14.561673473546945 0 0 0
852 728 19 0 37.67331404277679 36.16098017638886 14.885237497294883 0 0 0
269 145 19 0 35.88711900738658 33.690335273166234 19.29452734394934 0 0 0
94 1 3 0 47.589017461365366 29.308786655360162 21.338874020041644 0 0 0
442 318 19 0 40.731500070795995 33.27330501395721 18.68316851663798 0 0 0
224 100 19 0 45.91971851794258 32.78394016105535 18.72622534338919 0 0 0
373 249 19 0 42.53177554846257 29.70600196032432 16.10771861331445 0 0 0
1642 1518 20 1 41.40243559331479 29.001120666840965 19.970775944887855 0 0 0
321 197 19 0 48.397436324575345 35.57958700541445 15.273606624724252 0 0 0
1659 1535 20 -1 49.82217736225668 32.80085684223051 20.93937966929986 0 0 0
232 108 19 0 50.7144966002517 31.626399330562155 17.16258957955877 0 0 0
853 729 19 0 55.47685890814165 33.825873592827364 17.739679248528688 0 0 0
91 1 4 0 54.59100685835104 30.58433149457583 20.301269594674366 0 0 0
194 70 19 0 59.40528758863645 34.51189275224946 14.856934027469375 0 0 0
931 807 19 0 62.12501087515622 33.8017562264572 19.114580292746457 0 0 0
657 533 19 0 58.30106876654786 35.676987103964 21.275990774433158 0 0 0
501 377 19 0 58.17376695430901 29.723369681022668 18.01904915404115 0 0 0
745 621 19 0 32.99366838900231 36.9585248402741 16.57930922121152 0 0 0
430 306 19 0 36.72151247097417 40.770904534832596 15.807366648436728 0 0 0
793 669 19 0 37.827583600806854 38.24928318498728 19.474048418932306 0 0 0
284 160 19 0 33.95898544906863 41.67300241208858 19.61729155635297 0 0 0
873 749 19 0 44.837469558650376 43.13476874112497 14.966389441478563 0 0 0
458 334 19 0 42.20819704446121 37.06873809314063 21.242187721628646 0 0 0
1651 1527 20 1 41.245361001785 37.24481006490691 16.85535657909309 0 0 0
763 639 19 0 45.03008917490138 38.59704571474755 17.22551747551843 0 0 0
874 750 19 0 41.386344552450545 41.46291465228164 18.201665868903014 0 0 0
716 592 19 0 48.34541557600846 40.277076508654645 21.00368865748025 0 0 0
341 217 19 0 51.619103552493236 37.612967163130435 18.58575881912354 0 0 0
769 645 19 0 49.05787112074931 40.14878552969264 15.00393085173144 0 0 0
691 567 19 0 51.86256184747611 42.725202758824736 18.715407122717394 0 0 0
740 616 19 0 56.30715698165381 38.775562378580695 16.99673072094403 0 0 0
748 624 19 0 54.849671371892136 39.64144908783451 21.73773803870407 0 0 0
1657 1533 20 -1 56.65142457891346 42.999297994108275 17.732239861804473 0 0 0
933 809 19 0 61.76654297852188 38.20246851555443 17.014583716665825 0 0 0
1019 895 19 0 60.69498410640333 42.48811736637976 15.959292481472467 0 0 0
1024 900 19 0 59.492778671684945 40.67447381298749 20.355728228263178 0 0 0
729 605 19 0 39.75149128583714 44.88631560260382 15.023675381505795 0 0 0
823 699 19 0 35.04529829747978 45.610144652102775 15.588944056450503 0 0 0
257 133 19 0 37.79678968106308 49.93914475817652 16.39982476784868 0 -1 0
10284 0 19 0 34.331738070247084 46.77653438248645 20.699472489455466 0 0 0
835 711 19 0 38.903110467347226 48.8002961847074 20.93654848289855 0 0 0
858 734 19 0 45.482839755446534 47.96034504472537 14.916117721098047 0 0 0
685 561 19 0 47.52450486715995 45.64628551004368 18.57290818352403 0 0 0
751 627 19 0 42.70702290508507 46.20556075953011 18.802071919888178 0 0 0
780 656 19 0 47.35939658137843 50.06956398600793 20.750330221317153 0 0 0
294 170 19 0 50.30545414047945 49.502410173901 16.168440734777548 0 -1 0
855 731 19 0 54.2068480662324 46.51776504904417 16.77740907395641 0 0 0
809 685 19 0 51.52382673977897 47.374055079663 21.210372325158442 0 0 0
941 817 19 0 63.646850674166835 46.24239027798023 18.285791202611303 0 0 0
756 632 19 0 58.742549121257994 46.949295650429775 18.8962992941392 0 0 0
514 390 19 0 62.86245044761748 50.66354371456631 16.460433549059942 0 -1 0
824 700 19 0 34.75248252227307 54.7742441097592 18.9971979204983 0 0 0
834 710 19 0 38.98587535856933 53.638913828719446 21.550340851324265 0 0 0
863 739 19 0 40.00323330319078 55.16279380118643 16.66602182474726 0 0 0
693 569 19 0 42.73424455130961 51.06169296131035 18.456394116492515 0 0 0
219 95 19 0 44.196352647888695 55.901390035679 20.10496649110009 0 -1 0
822 698 19 0 46.456962310781506 52.769603653939456 15.513364933561107 0 0 0
997 873 19 0 55.131156445255804 51.71753271645611 16.612863219090695 0 0 0
713 589 19 0 50.98782074168085 53.197000540751894 19.364723378287973 0 0 0
555 431 19 0 54.025562262714644 56.71127434449633 16.83401398121725 0 -1 0
781 657 19 0 48.91585659743721 56.993170024531686 16.843010397773455 0 0 0
187 63 19 0 55.23673462786614 54.76084356816519 21.227544563916307 0 -1 0
761 637 19 0 51.4011192842766 57.93782829512734 21.471664665567086 0 0 0
986 862 19 0 63.84799715362944 53.62926692254366 21.29649274987531 0 0 0
1658 1534 20 -1 63.494157397375226 54.67091220937979 15.927702535787978 0 0 0
1004 880 19 0 59.312569803527495 52.14021458617653 19.429832938498368 0 0 0
524 400 19 0 59.41476870655218 54.76846839219835 15.329814554403127 0 -1 0
576 452 19 0 60.20493687564271 57.29880137132401 19.796688724049233 0 -1 0
4223 0 19 0 33.0130180352135 30.822306374525784 28.32054401084954 0 0 0
168 44 19 0 38.22650707484786 30.879102430225117 22.111424206735936 0 0 0
47 1 3 0 37.370229745054424 32.95503749099248 28.038205608906754 0 0 0
401 277 19 0 33.29053870080174 35.84674684685717 27.097037805766085 0 0 0
255 131 19 0 37.788578157635385 35.748385516312176 23.811068001573208 0 0 0
49 1 13 0 39.97197700103853 32.31745215380745 26.089909124508896 0 0 0
283 159 19 0 33.71614481382761 32.19751071614009 23.80508111571375 0 0 0
52 1 14 0 39.453372627731824 34.130811578152986 27.27812351690164 0 0 0
101 5 4 0 47.45553313356895 29.26890768540309 21.78764731401711 0 0 0
332 208 19 0 47.004013324823504 35.27844864673307 22.974429923088014 0 0 0
9 2 7 0 42.79655874985635 30.21134231015632 26.704794604250807 0 0 0
331 207 19 0 43.019033443636864 31.924340739506953 22.9111717680232 0 0 0
60 1 8 0 43.8130413486222 34.80366146858503 26.411422590570705 0 0 0
53 1 3 0 42.74780986987234 35.27584075650034 28.765011607349688 0 0 0
50 1 14 0 41.28278468964202 34.61232232159857 26.650967157528708 0 0 0
51 1 13 0 41.68798839844144 34.87746754934604 25.899052631339725 0 0 0
57 1 3 0 45.77324639226381 32.652492677987865 26.65934353014736 0 0 0
59 1 3 0 47.19521408957871 35.09191278739267 27.955752469190845 0 0 0
251 127 19 0 53.48210108084379 33.459033541894144 23.291902668994965 0 0 0
58 1 12 -1 49.47194722148503 31.810089966720433 25.724863044803847 0 0 0
69 3 8 0 48.746387899079494 34.950487476749224 27.731874368355165 0 0 0
97 5 6 0 53.90771809502281 30.046030290530954 26.300222085427425 0 0 0
99 5 6 36 53.901877778172775 29.863969602264167 25.89052745283657 0 0 0
68 3 3 0 51.75339370018686 33.731038519441896 28.068977109704036 0 0 0
79 4 14 0 53.335288232082235 32.1864031980628 28.647400164659135 0 0 0
96 5 18 36 51.4388998819274 29.940802039154295 22.590415766788233 0 0 0
84 1 3 0 58.50042869608182 31.848203855436434 28.647026745845128 0 0 0
85 1 11 0 59.53611690467819 29.736213032724166 26.398042557626777 0 0 0
1643 1519 20 1 63.162460847857076 31.118859878883338 26.684185617727067 0 0 0
83 1 15 -1 58.09666663723288 32.020564180166225 28.53870514909197 0 0 0
86 1 4 0 59.656168297442086 29.353993244828395 26.957625971829017 0 0 0
89 1 3 0 57.56531517291636 30.782033009029167 22.68777539011243 0 0 0
88 1 8 0 57.91760537469111 31.312741532376773 23.12967655578454 0 0 0
643 519 19 0 60.75914219621822 34.3614536629276 25.17554300632418 0 0 0
87 1 13 0 57.65873965645815 31.09528652323517 26.01144886213715 0 0 0
634 510 19 0 62.40313448799079 30.099311340531226 22.30068000154148 0 0 0
253 129 19 0 33.240941215570025 36.495456693997276 21.843885471405496 0 0 0
1547 1423 19 0 36.1173027871552 42.69232131066798 28.406001848568213 0 0 0
715 591 19 0 35.34122001130069 40.161967723717126 24.172776909989587 0 0 0
766 642 19 0 37.49810398199705 37.703169740391886 28.440975466216216 0 0 0
771 647 19 0 43.715908485629065 43.09495734035091 22.86078928558379 0 0 0
252 128 19 0 40.399706648502644 39.84339363074861 24.589201916919556 0 0 0
728 604 19 0 45.20813351642693 38.93897666804929 25.512382368553315 0 0 0
759 635 19 0 45.01809369972442 43.316081362591255 28.11653334699597 0 0 0
742 618 19 0 55.880919372050386 36.595536564804945 26.09097300983 0 0 0
797 673 19 0 50.9520123479909 37.5810635486939 24.888149571277765 0 0 0
799 675 19 0 52.98515763131242 40.62589488052995 27.83831329835479 0 0 0
703 579 19 0 51.47471180824751 42.873659404374585 23.788036178274567 0 0 0
1584 1460 19 0 56.34465457497264 43.159243006778304 26.203978507668 0 0 0
905 781 19 0 62.07202351554242 43.04916354048285 28.935898988567697 0 0 0
970 846 19 0 63.37549886407099 37.8224112740027 22.10084037034568 0 0 0
907 783 19 0 59.75960703608816 39.778593120458545 25.488411023424735 0 0 0
875 751 19 0 38.63487980694059 43.68774720513474 21.961070598795366 0 0 0
819 695 19 0 36.09918909739899 46.55699541045629 25.200989383707068 0 0 0
1669 1545 20 -1 39.70735936090946 49.49451264050389 25.05396857631115 0 0 0
758 634 19 0 43.09901076795521 49.6140680677561 28.185828329694452 0 0 0
802 678 19 0 40.48800172659595 45.33655759500189 26.688388446171842 0 0 0
1034 910 19 0 43.26319600156722 47.90342476694043 23.167386145629738 0 0 0
1655 1531 20 1 46.810301933041444 50.60204129360196 24.970317976807703 0 0 0
879 755 19 0 47.62759953320083 46.313794408522895 24.341161762767115 0 0 0
911 787 19 0 56.032346354715976 49.266487485361154 21.905659909739157 0 0 0
908 784 19 0 55.76314884686648 44.32612532099362 21.805896962940363 0 0 0
849 725 19 0 50.305782921706616 44.7418081872913 28.70490696025195 0 0 0
696 572 19 0 49.19756837550957 49.71231616385373 27.994707502770098 0 0 0
1636 1512 19 0 53.847572890331165 47.339335444181565 26.591771154855657 0 0 0
945 821 19 0 61.1379524944865 43.91582706356035 23.364109680129186 0 0 0
1002 878 19 0 58.6959487809309 46.64453992158848 28.781649738492305 0 0 0
994 870 19 0 63.08812763441147 47.66403771433555 27.766479135257303 0 0 0
930 806 19 0 61.39425040722838 49.36463950417154 22.768302173221556 0 0 0
1656 1532 20 1 57.88988066182006 47.04496969078778 24.51573573990847 0 0 0
10624 0 19 0 33.59704152132688 51.120514425632855 27.84989898370218 0 -1 0
776 652 19 0 39.00843723480122 53.398992548668275 26.443649556261335 0 0 0
821 697 19 0 34.74731098543855 51.99406586960075 22.91184982072469 0 0 0
832 708 19 0 34.66157640436001 56.069586951964986 27.999222655932638 0 0 0
201 77 19 0 35.55152295914326 56.82842121568952 23.434567572303138 0 -1 0
775 651 19 0 39.43624698457891 57.27510193792847 28.88190035389317 0 0 0
228 104 19 0 47.745689105220215 54.476618069722306 23.26797872524348 0 -1 0
743 619 19 0 43.329514722161186 52.90952797342378 23.80599976941643 0 0 0
734 610 19 0 41.89861852283443 57.74476870562588 24.39463438299696 0 0 0
306 182 19 0 45.30917253432664 54.34260576146547 27.692428438775426 0 -1 0
705 581 19 0 51.68712229290002 51.46627380210785 24.231157874496557 0 0 0
1489 1365 19 0 50.197958207601694 55.199084532237734 27.446337658548426 0 0 0
978 854 19 0 54.961048091991415 54.97117372523019 25.74569899445055 0 0 0
953 829 19 0 59.85895987796657 54.13808906926486 24.039849565457814 0 0 0
644 520 19 0 62.73195117425448 52.46513366448943 28.010370262098046 0 -1 0
966 842 19 0 58.67523569540628 54.464570338035934 28.933982486591677 0 0 0
946 822 19 0 57.59644002670998 50.844789335718595 26.282567393192597 0 0 0
43 1 13 0 37.545538392842936 34.015284844896236 34.33934976252569 0 0 0
45 1 13 0 35.951401420861345 34.0277732297971 30.96771219158158 0 0 0
46 1 8 0 36.593931438837245 35.290431546752245 33.53506089835167 0 0 0
423 299 19 0 32.42547893079924 31.938128915398774 33.67795495864124 0 0 0
48 1 15 -1 36.5149427959347 33.96634025745599 31.366864565452268 0 0 0
44 1 14 0 39.98799948058198 33.954464036376635 35.456892422032055 0 0 0
406 282 19 0 36.773483655182524 29.471995406619563 31.55429943316194 0 0 0
818 694 19 0 44.41134588185609 35.0373709658823 33.137090861942525 0 0 0
731 607 19 0 40.61403435852781 32.052116425968066 31.484347996496147 0 0 0
63 1 8 0 46.04249791246223 32.16925895198277 29.7010581308017 0 0 0
56 1 14 0 46.317486938791085 31.423404091655026 29.89207776262564 0 0 0
12 1 9 1 44.03818069706819 30.044745567624933 32.88727138644193 0 0 0
62 1 13 0 48.05380750283323 34.006772230839125 30.712614070697807 0 0 0
1167 1043 19 0 48.015114501805726 31.28568429261401 34.276486338586665 0 0 0
65 1 16 0 46.93049600383809 32.11714472008548 29.13392563714714 0 0 0
39 1 3 0 43.22519047311509 31.84469357074531 36.11993163935922 0 0 0
55 1 13 0 43.95143511809693 32.479160284972586 29.138979738640625 0 0 0
54 1 4 0 44.709879860699345 32.90583977358451 29.10919035073596 0 0 0
67 3 6 0 48.895311973326436 33.76641838249399 31.381686328966815 0 0 0
73 1 3 0 54.04486695307405 32.51968106560318 31.98299558345295 0 0 0
75 4 6 0 52.98958650486351 32.49556693254515 31.810401941690287 0 0 0
77 4 7 0 54.96408973846592 32.479490847258596 33.88332203716585 0 0 0
71 1 3 0 52.861269846728774 35.08204960788419 30.663438672770766 0 0 0
76 4 6 0 55.1836523655661 30.462023593906924 31.89551180547615 0 0 0
78 4 13 0 55.83572885827807 31.94309370674981 29.517089798944497 0 0 0
66 3 6 0 50.2806565720502 32.10902380589539 29.468510976009274 0 0 0
64 1 3 0 49.80454699753232 31.75800837735662 29.431869109507762 0 0 0
74 1 5 0 53.71555201116396 30.960824234188824 29.356526255765022 0 0 0
1145 1021 19 0 53.953703673278916 29.274916839081424 36.07461641216686 0 0 0
70 1 9 1 51.837594965699225 36.22777509547269 29.516498085243004 0 0 0
18 1 10 0 51.13127506425275 29.17155370723197 31.517134383997988 0 0 0
82 1 3 0 59.01757782636482 32.52023022653498 32.08386922362475 0 0 0
677 553 19 0 62.82980826749887 30.67387340049431 34.971861892090864 0 0 0
81 1 11 0 58.85348562634946 32.974271289724456 32.81652693091111 0 0 0
72 1 17 0 56.98583058211038 34.44004403560225 30.262043435701266 0 0 0
906 782 19 0 63.302443962890315 33.06699960839731 30.288345723139507 0 0 0
8653 0 19 0 63.42509210373587 35.641173383783354 34.56217970397866 0 0 0
80 1 3 0 57.54496438707151 34.54735032186205 29.936813985227978 0 0 0
791 667 19 0 36.030336049118084 40.18824075890646 32.41487792040778 0 0 0
1665 1541 20 -1 32.40245732612256 39.83575524052444 34.51382771746004 0 0 0
1470 1346 19 0 40.138730219323364 41.67719589335476 35.211812599322144 0 0 0
869 745 19 0 40.23391095519699 37.363465436681786 32.94421696683512 0 0 0
684 560 19 0 32.55540926691802 36.515246841363044 32.09821146201893 0 0 0
736 612 19 0 32.30411466741963 40.6540630617879 29.47886912442258 0 0 0
61 1 9 1 43.441456374091494 37.19450186890909 29.44387717011922 0 0 0
732 608 19 0 48.24414377164413 39.88016094529297 29.732766831804437 0 0 0
792 668 19 0 44.52881450205602 40.19867434557679 32.794198943811146 0 0 0
785 661 19 0 40.75600169937602 41.321626219283104 29.860468496868755 0 0 0
687 563 19 0 55.76159246258824 36.46458764708768 34.34876276426134 0 0 0
837 713 19 0 49.221818566203076 36.700573064644246 33.90286380573272 0 0 0
1504 1380 19 0 48.716519538469505 43.48771780453985 33.36577783063728 0 0 0
812 688 19 0 52.243375845444184 39.95418382181231 32.39526427029624 0 0 0
996 872 19 0 62.92690690539358 37.812433653861916 29.97916958969864 0 0 0
1592 1468 19 0 57.19552998178549 41.29363055443066 34.38212536441909 0 0 0
1640 1516 20 1 59.61338251417312 37.447073078781834 32.890456085349285 0 0 0
1600 1476 19 0 62.41900244463322 40.80331193782253 34.25702521526783 0 0 0
1026 902 19 0 57.23827449255539 39.23458707921442 29.949295358302162 0 0 0
1480 1356 19 0 39.2732285411059 49.643058336709856 33.73127776015959 0 0 0
1532 1408 19 0 37.009822673413154 45.28420688167432 33.10889320544484 0 0 0
820 696 19 0 33.993414772153656 48.93130149741419 32.85210231624663 0 0 0
896 772 19 0 37.99867783058849 48.897024517065795 29.080035361428195 0 0 0
899 775 19 0 41.89008298681338 45.74951432972721 32.36049987818066 0 0 0
720 596 19 0 46.663498189914954 47.069116453203755 30.986279830525575 0 0 0
885 761 19 0 44.18684286770975 50.27072390432497 33.57732455112733 0 0 0
1635 1511 19 0 55.01291591318525 44.17114756834574 30.85999638213748 0 0 0
1566 1442 19 0 51.278333532955145 47.876075921487974 32.56545051608046 0 0 0
1628 1504 19 0 55.95488259566037 48.32346934888287 33.940866167305316 0 0 0
1610 1486 19 0 60.08346095915096 45.22810012798923 33.20541531767997 0 0 0
570 446 19 0 60.26616724345048 50.31635971897985 31.60538266045791 0 -1 0
8543 0 19 0 36.44146115152555 53.56554577346078 32.009102242459335 0 0 0
1426 1302 19 0 45.19859461276413 56.50510300238859 32.351306719439506 0 0 0
1478 1354 19 0 41.276763449162836 54.18794462530581 35.91139769323833 0 0 0
815 691 19 0 41.48580098627942 53.15183466828781 30.94668242101658 0 0 0
1522 1398 19 0 48.220512715723444 52.52357400664657 32.185071440806496 0 0 0
1493 1369 19 0 54.02669538870672 51.19920235619862 29.771159969304634 0 0 0
1335 1211 19 0 53.98382931176951 56.840949500553414 30.735312900978794 0 -1 0
917 793 19 0 52.29883283835308 52.73203454703175 34.641635881859195 0 0 0
610 486 19 0 54.42926875274082 57.35211405995935 36.201496015719044 0 -1 0
1445 1321 19 0 50.13536897589252 56.87805366548542 34.422112144188524 0 0 0
1507 1383 19 0 57.07464360917296 53.51951287806294 33.85030138320253 0 0 0
475 351 19 0 61.76205961968033 55.168424188069935 32.378795381323265 0 -1 0
1585 1461 19 0 63.471759322788756 50.75701872004291 34.788858458735696 0 0 0
2 1 2 0 40.200533542863006 32.85204448364929 36.43029641432577 0 0 0
1208 1084 19 0 32.644978915376214 30.3750214939393 39.0021656593037 0 0 0
4 1 4 0 36.96596907615258 30.84641345094594 36.76826343817605 0 0 0
42 1 12 -1 37.37213488401026 31.004173373644868 36.37290411960728 0 0 0
1 1 1 0 36.89017668853432 31.160290949687006 36.289342404826364 0 0 0
315 191 19 0 33.437609831937344 34.93234607854165 37.00434007308639 0 0 0
1661 1537 20 -1 37.12031877601158 31.281089310110623 40.66491957408389 0 0 0
1040 916 19 0 36.08321081253775 35.49919995844578 41.61015342401314 0 0 0
41 1 3 0 40.392092351812195 33.27349806227001 36.324180576818804 0 0 0
37 1 3 0 44.68173226821435 29.134720918215884 37.01817706483296 0 0 0
1259 1135 19 0 45.21700865859991 31.386384841054642 41.80612193858484 0 0 0
1163 1039 19 0 41.013816384625514 33.89039907891491 40.84662029237127 0 0 0
1449 1325 19 0 46.670545479091444 34.41456250180786 37.64208965413989 0 0 0
40 1 4 0 44.25724354264966 29.304732427627414 37.502169400982524 0 0 0
1177 1053 19 0 40.7053821122987 29.14002697820786 40.19363163518108 0 0 0
1170 1046 19 0 52.13974276039596 33.88283257334323 36.47015037286314 0 0 0
1182 1058 19 0 49.71051847265387 34.73680714562091 41.55967754616954 0 0 0
1061 937 19 0 53.889677093866084 31.48811670071312 40.40732166962489 0 0 0
1542 1418 19 0 49.26864021625641 30.078372257682876 38.82892938568093 0 0 0
1514 1390 19 0 55.59818086716291 36.02650342773044 40.77166662739258 0 0 0
1332 1208 19 0 62.760807912725305 29.785425204561154 42.73498996740809 0 0 0
1534 1410 19 0 57.502509546926056 32.683227577583935 37.11723344332883 0 0 0
1593 1469 19 0 62.321605750505014 33.40136875499574 38.894699360725895 0 0 0
1388 1264 19 0 58.80832927850256 32.64785113047468 42.30978615305272 0 0 0
777 653 19 0 37.46741737372501 37.431064553901805 37.326312008495876 0 0 0
397 273 19 0 35.17659049730665 42.30963856980946 36.78906760819984 0 0 0
1244 1120 19 0 35.96514104428315 40.82885855153453 41.68609658725928 0 0 0
1436 1312 19 0 42.638611932777096 37.75031506023937 36.9345989258849 0 0 0
1536 1412 19 0 47.20450846549451 40.03015367812054 37.223926409904244 0 0 0
1428 1304 19 0 45.35939355130215 37.224076946435495 41.211003993320745 0 0 0
1063 939 19 0 42.885763467029314 41.970855754144196 39.00606056891739 0 0 0
1531 1407 19 0 40.35409204441391 38.67280853707324 41.75366322793089 0 0 0
1523 1399 19 0 45.866958356072196 41.888115772735375 42.945974934543386 0 0 0
1516 1392 19 0 53.15868830760028 39.114280512413494 37.300957153512016 0 0 0
1484 1360 19 0 50.61521119966985 40.26151305362498 41.40524533787008 0 0 0
1477 1353 19 0 57.12117725643372 41.05578481110019 39.63473075172707 0 0 0
1579 1455 19 0 59.86825576507599 37.86618979622057 37.4226139026705 0 0 0
1006 882 19 0 60.00874057163587 37.696041027534875 42.36605022316731 0 0 0
1518 1394 19 0 62.0098305158722 42.22714050264878 39.27381531047503 0 0 0
1525 1401 19 0 32.247293416788295 48.94844154063187 40.844144218765535 0 0 0
808 684 19 0 34.973546488485056 47.238142421607186 37.204152605355105 0 0 0
1549 1425 19 0 36.306366938945736 46.319073448553446 42.01562656489694 0 0 0
1495 1371 19 0 39.655600673781585 45.784415882341214 38.163716416416634 0 0 0
894 770 19 0 44.682888861356 45.392813479511254 36.429275293494086 0 0 0
1544 1420 19 0 40.61132807919413 43.981886866597414 42.752014312526384 0 0 0
1431 1307 19 0 48.0985372248072 49.38259072257456 36.29728774103633 0 0 0
1443 1319 19 0 40.78670950043114 49.11176892403609 43.03661710184126 0 0 0
1541 1417 19 0 44.94528594479302 46.88427450593554 41.728233805337176 0 0 0
1415 1291 19 0 42.68015263809013 49.94872898421043 38.3386464626258 0 0 0
764 640 19 0 53.058188168374805 43.79944880032901 36.69234717244415 0 0 0
1441 1317 19 0 48.93192726418955 45.04551693229117 39.0378645930847 0 0 0
1424 1300 19 0 53.67825526209972 44.86008157776157 41.19006828857892 0 0 0
1630 1506 19 0 53.1441932165058 49.18224707545909 38.35907133339072 0 0 0
1528 1404 19 0 49.895222504634084 46.84572359509341 43.37666219046927 0 0 0
1631 1507 19 0 57.548064072187735 49.56578330706607 42.049272524105504 0 0 0
1553 1429 19 0 62.98927126379792 46.35296982411957 36.96960674179247 0 0 0
1621 1497 19 0 57.6971977861856 45.655466099001764 37.974050079841355 0 0 0
1556 1432 19 0 62.09717733402759 47.714159649498626 41.3337535870058 0 0 0
1581 1457 19 0 59.209286432719175 50.234494043768116 37.196756381493174 0 0 0
2595 0 19 0 33.139402696666046 51.80315824443182 36.625094824420685 0 -1 0
1413 1289 19 0 35.9180437263984 55.66732683901265 36.602876334106064 0 0 0
213 89 19 0 37.683160575464456 51.61389089981889 38.744688656383474 0 0 0
1464 1340 19 0 36.382607701483145 55.90739655976359 41.95233817970004 0 0 0
1232 1108 19 0 39.78239876859124 57.80577420232954 38.891812554481774 0 -1 0
1455 1331 19 0 46.43476448911029 54.454479875683944 37.32908772226015 0 0 0
1444 1320 19 0 47.889416519568016 51.09960617037367 41.50021078048307 0 0 0
1452 1328 19 0 41.38800822571968 53.90610634470583 41.22081409630782 0 0 0
1497 1373 19 0 45.91482326649229 55.698475079579936 42.497483408286854 0 0 0
1438 1314 19 0 51.149565720922496 54.48846512137598 39.19931775228842 0 0 0
1613 1489 19 0 56.34317361607284 53.755597967272095 38.97056641376297 0 0 0
1454 1330 19 0 53.344379763344 51.59050491870128 42.555174424789044 0 0 0
1535 1411 19 0 50.85746819616598 56.74363038607777 43.26030393966416 0 0 0
1568 1444 19 0 61.04943396587665 54.142826982125676 37.36210305744461 0 0 0
1609 1485 19 0 60.401856997384385 53.51744785622063 42.977700732510094 0 0 0
1192 1068 19 0 33.4791487327463 35.437459990191265 46.02258498419643 0 0 0
1223 1099 19 0 34.410981052394945 30.618881969282086 43.77273516913783 0 0 0
1072 948 19 0 38.50876668111163 33.26291223324249 44.955382665448184 0 0 0
1126 1002 19 0 35.545805432204325 32.03564060826074 48.78845662758886 0 0 0
1261 1137 19 0 39.89304083159297 35.037469794925215 49.52060188539069 0 0 0
1498 1374 19 0 40.155437048717374 30.3076858371917 50.36472068173353 0 0 0
1236 1112 19 0 43.12442138694801 30.001545883082017 46.01047968262094 0 0 0
1266 1142 19 0 43.22668398915505 35.92733913913311 45.5049093793562 0 0 0
1450 1326 19 0 44.35888082737424 33.30781260000586 49.78783472554775 0 0 0
1107 983 19 0 47.26963600858235 33.173841712255175 45.842740066053935 0 0 0
1186 1062 19 0 55.663040557729374 31.306843020277103 45.58347936173093 0 0 0
1548 1424 19 0 52.66853053642731 35.870779131261116 45.5552783641772 0 0 0
1349 1225 19 0 54.89743286869187 34.67113907449731 50.16485634143818 0 0 0
1202 1078 19 0 50.596178286161354 32.71467691338535 49.95155537187529 0 0 0
1193 1069 19 0 49.62503360132433 29.09431359075953 43.62961514272545 0 0 0
1289 1165 19 0 64.07917400166448 34.27352058123063 43.72198843575381 0 0 0
1294 1170 19 0 57.39630615018947 29.680451384064067 50.62608049804232 0 0 0
1299 1175 19 0 60.939300643522216 31.822349320298528 47.14952544034555 0 0 0
1327 1203 19 0 57.95620906853402 35.89487779225851 46.22067982109411 0 0 0
1506 1382 19 0 35.13680806688397 36.86596081248676 50.583834468006614 0 0 0
1118 994 19 0 37.59840304933522 38.28665899381102 46.137037354811625 0 0 0
1467 1343 19 0 33.76360239682846 42.36124017052703 46.226213184837356 0 0 0
1453 1329 19 0 38.47248621385866 41.47501496390196 50.0372914455977 0 0 0
1430 1306 19 0 42.08594691771541 41.145239355523216 46.623230216689095 0 0 0
1442 1318 19 0 46.65105478820686 42.372274173033865 48.37511958789919 0 0 0
1465 1341 19 0 47.942384208627765 38.341684707981884 45.459378900587275 0 0 0
1082 958 19 0 47.74758081924362 37.28770221330819 50.23703911462076 0 0 0
1338 1214 19 0 55.26723909291141 39.635511641042044 44.30563933456112 0 0 0
1481 1357 19 0 51.066818241088264 42.29554010662765 45.42769848172784 0 0 0
1370 1246 19 0 52.28662826934292 38.93698712728497 49.29588799713535 0 0 0
1447 1323 19 0 56.05539671429994 42.50685041268882 48.58322060043282 0 0 0
1594 1470 19 0 63.51194717194349 43.407420775968916 43.83793933489761 0 0 0
1395 1271 19 0 62.61622360514122 36.46774519690428 48.414187311524586 0 0 0
1460 1336 19 0 60.67728053204362 40.42856467568586 46.48104143644118 0 0 0
1529 1405 19 0 37.69574757765015 45.92470357705785 46.9473986025782 0 0 0
7426 0 19 0 33.50619671313313 45.75244593294466 49.668119353755095 0 0 0
1519 1395 19 0 34.93131986664546 50.55486894199963 50.74449658213936 0 0 0
1437 1313 19 0 43.604646538984184 46.029999951715475 46.45147793011982 0 0 0
1491 1367 19 0 43.41112714529535 48.66660788174715 50.452542381033126 0 0 0
800 676 19 0 47.85749244820034 48.319576498649 47.545856630928505 0 0 -1
1417 1293 19 0 51.81826302550408 45.395634378347765 48.89594921407599 0 0 0
1629 1505 19 0 54.62829873289865 47.348129127450214 45.666511347965965 0 0 0
1598 1474 19 0 52.00824370583815 50.59587982500575 48.33128201870659 0 0 0
1282 1158 19 0 58.58395037634072 44.58422696868802 43.95919254505862 0 0 0
1563 1439 19 0 60.99871515928381 44.36562307444782 49.32956760147519 0 0 0
1589 1465 19 0 60.05122508951364 48.49266222468647 46.429789441218865 0 0 0
1468 1344 19 0 36.15122204636468 51.29003313688083 43.86598839990748 0 0 0
1457 1333 19 0 39.48128206648114 50.98034926947683 47.919137876517134 0 0 0
1141 1017 19 0 40.12777437746749 56.50723638210187 44.821902940524986 0 -1 0
1483 1359 19 0 35.71597085006637 54.91960551104031 47.52458060722364 0 0 0
1515 1391 19 0 44.47363380436679 51.7533215223429 45.264949621851734 0 0 0
1432 1308 19 0 43.0095184676578 53.465517573550656 49.850651757097765 0 0 0
1505 1381 19 0 48.52850035865694 54.36253198445579 47.27192656202168 0 0 0
1607 1483 19 0 56.06742355710443 56.23930120987601 43.705340556646284 0 0 0
1274 1150 19 0 53.98612910334961 56.13653482119469 48.66174288560084 0 -1 0
1559 1435 19 0 58.850117680760725 56.511924025234556 49.07239531237424 0 0 0
1379 1255 19 0 62.263042204423265 52.91257367039137 47.943323137013834 0 -1 0
1578 1454 19 0 56.80246582179825 52.188945025469906 46.61925934534028 0 0 0
1173 1049 19 0 33.47187213345433 31.585363125886033 56.95902373493777 0 0 0
881 757 19 0 36.40625959040073 32.97990086559776 53.65574390662475 0 0 -1
1117 993 19 0 45.01287158592307 29.447383563801694 53.02161156611981 0 0 0
1243 1119 19 0 41.378595053315316 33.71593270479575 54.25967268346799 0 0 0
1252 1128 19 0 47.136238176550414 33.802929621099516 53.89619363168553 0 0 0
145 21 19 0 43.579196171099376 30.978627630564286 57.59415505873002 0 0 -1
1113 989 19 0 43.512830382615135 36.10302471257801 57.92830701303233 0 0 0
1188 1064 19 0 50.44511354410373 30.878392958769368 56.98412968316382 0 0 0
1099 975 19 0 55.04275942144474 31.904964535172613 54.2571082079348 0 0 0
1108 984 19 0 51.76558505946027 29.003392926608132 52.58374506421837 0 0 0
1276 1152 19 0 62.067757712037725 30.260933803661267 53.11429141079431 0 0 0
1569 1445 19 0 63.470761651778695 35.08261978682623 55.75501666056885 0 0 0
1604 1480 19 0 59.61670315331167 34.514398122517846 52.03337967020567 0 0 0
1407 1283 19 0 59.282964718807186 32.128530400181205 57.01186112382677 0 0 0
1472 1348 19 0 34.33775309913711 42.1941210083341 57.62764735989527 0 0 0
6960 0 19 0 34.611251976461126 37.264657883164425 55.91785696159994 0 0 -1
1079 955 19 0 33.800128138308516 41.31786469354626 52.663778993589034 0 0 0
901 777 19 0 38.08262701294441 43.12102695579067 54.63376351897081 0 0 -1
848 724 19 0 38.949847842995986 38.307653013844785 54.063158839450466 0 0 -1
1102 978 19 0 43.15905385268141 39.156021046224524 50.84249660848859 0 0 0
1125 1001 19 0 46.561137233506415 38.6532327224958 54.736142244301455 0 0 0
1471 1347 19 0 42.28238183465192 41.47332167149851 55.53764758341671 0 0 0
1660 1536 20 -1 45.86136597864893 42.422562541745876 53.119299440408746 0 0 0
1423 1299 19 0 47.45856812120589 42.948680396619345 57.18409737279421 0 0 0
1083 959 19 0 51.66653011215883 36.59666881299506 53.93439792789639 0 0 0
1466 1342 19 0 49.92012458268107 41.43278992206637 52.82569199571023 0 0 0
1487 1363 19 0 54.78061738914681 40.83701309458491 53.39258688484108 0 0 0
1520 1396 19 0 59.45780795385766 39.05538283052585 51.283850135488315 0 0 0
402 278 19 0 56.84353378636633 36.79557094111131 55.32713106218698 0 0 -1
1286 1162 19 0 61.694702246087296 40.34078399491389 56.21225807350744 0 0 0
1479 1355 19 0 33.930294095751606 46.40029143170513 54.50681648186529 0 0 0
735 611 19 0 38.29895764250544 47.8903928610915 56.4894271222282 0 0 -1
1526 1402 19 0 38.323647521392104 47.16039105991599 51.50004432131812 0 0 0
1546 1422 19 0 42.384758259840055 44.063012645124594 51.010426776245815 0 0 0
1476 1352 19 0 47.9140500653899 46.05041665593392 51.95484455062617 0 0 0
686 562 19 0 44.008251533283925 46.01097332367249 55.277143473126586 0 0 -1
708 584 19 0 48.86383320437794 47.96427533131078 56.265828738142126 0 0 -1
1458 1334 19 0 51.68911187810348 48.91439996209856 52.57316893318823 0 0 0
1615 1491 19 0 52.80377339659585 44.879504965068215 55.23898115506985 0 0 0
1524 1400 19 0 58.96800723381845 43.52914776196289 53.344228441308886 0 0 0
1583 1459 19 0 64.19932421481319 43.64812884262677 53.29833526964541 0 0 0
1550 1426 19 0 56.468785794776 47.007891566056756 50.77272924093727 0 0 0
1494 1370 19 0 56.4839663425792 48.53790809203286 55.777990939433785 0 0 0
1605 1481 19 0 61.07189971525648 48.019264703922666 53.23999340362209 0 0 0
862 738 19 0 40.24212897679694 51.37204833400874 53.544354218337574 0 0 -1
1069 945 19 0 35.81599669065028 57.064516089195884 56.06224340358258 0 -1 0
1418 1294 19 0 38.78504790810772 55.422664026036436 51.91495503158567 0 0 0
1539 1415 19 0 35.42243329135669 51.865324113254616 55.46754191026158 0 0 0
867 743 19 0 43.17483624986811 56.01316896422678 54.69010335660864 0 0 -1
1474 1350 19 0 46.387015140944555 56.65893596075483 51.11352069850081 0 0 0
1499 1375 19 0 47.93068158802267 51.39183557677612 51.38991290895523 0 0 0
842 718 19 0 44.91178166446426 51.17872883068942 55.15043790583003 0 0 -1
990 866 19 0 51.42358768186885 54.768179043549125 52.353216067278225 0 0 -1
1555 1431 19 0 55.8271959263586 52.04502159297491 51.75323536033411 0 0 0
1496 1372 19 0 48.42813310002274 54.68613367094106 56.56477409597635 0 0 0
844 720 19 0 52.58172526677805 51.73245651048635 56.1640362910221 0 0 -1
1500 1376 19 0 55.829376840219616 57.113894696212796 53.191021384856235 0 0 0
1475 1351 19 0 52.38458557172782 57.855486582316615 56.6965139190427 0 0 0
1588 1464 19 0 61.050712522534305 53.52619268577565 52.74005009467716 0 0 0
1001 877 19 0 56.825675084435815 53.95726372737871 56.52741865307418 0 0 -1
925 801 19 0 60.104325152746895 57.89627612530178 54.96870823096849 0 0 -1
1561 1437 19 0 61.108113784906905 51.229613886312684 57.290010871120295 0 0 0
923 799 19 0 68.11098333838885 6.178773243523556 4.919147752249798 0 1 0
12289 0 19 0 70.7493479492786 1.811897116767046 3.483686863361104 0 0 0
645 521 19 0 65.15577841067147 0.6356857663662081 2.4821311666583807 0 0 0
11574 0 19 0 68.10518172397849 4.084963485675076 0.25501608802592546 0 0 0
16409 0 19 0 78.80494017466606 5.454874228487357 1.863825812603957 0 0 1
15803 0 19 0 73.93516309742749 5.115945775431832 2.674651945200613 0 0 0
16147 0 19 0 76.91084223338578 4.111980371606276 6.648807802789351 0 0 0
11786 0 19 0 76.65308993550255 0.5314882510454374 3.2604060102773325 0 0 0
12319 0 19 0 73.51021348165474 0.4720079975036957 7.06883469819305 0 0 0
17009 0 19 0 84.36764836901432 4.8012504664185895 2.8938256509433593 0 0 1
13106 0 19 0 81.58286140729436 2.4588410630957536 6.186342637976224 0 1 0
15131 0 19 0 81.09492053911316 0.7191670201976119 0.8536157685597022 0 1 1
17759 0 19 0 89.62875742522931 2.6615713278079762 4.004219762734499 0 1 0
528 404 19 0 67.05376057450222 10.638623697479284 2.5568040451823535 0 0 0
11508 0 19 0 70.99195086885824 14.170144121116957 2.251398983065246 0 0 1
15863 0 19 0 71.44063237391268 9.886168325733225 4.881032521542141 0 0 0
11260 0 19 0 70.99482711328241 8.494059254066565 0.598372388458698 0 0 1
16213 0 19 0 80.14740399842967 7.825796588429844 6.266119975724188 0 0 0
15246 0 19 0 76.51901452889003 9.834904244639036 2.969620794107335 0 0 1
15034 0 19 0 74.97862749100655 13.516787604635576 5.3536439636641555 0 0 0
17398 0 19 0 78.73641701336828 14.188759979994233 1.8188037645988553 0 0 0
17431 0 19 0 80.19417597317062 12.848368451367657 6.833609824914431 0 0 0
16633 0 19 0 88.19868384744221 8.487615267392195 2.5920515437402294 0 0 1
16208 0 19 0 82.08882402358219 9.420328293949874 2.106230217017481 0 0 1
16699 0 19 0 87.71250772437773 13.535669103911077 0.5190311968704934 0 0 1
15763 0 19 0 88.284288440157 13.29790340543635 5.802609415616254 0 0 1
17570 0 19 0 84.84079752009774 9.29048614786406 6.392852378605286 0 0 0
470 346 19 0 66.91581837917636 15.727425169282414 4.319651569324798 0 0 0
14996 0 19 0 66.34498857626168 20.66096321802009 5.080384096118762 0 0 0
16009 0 19 0 70.8086950775053 18.721154133617773 4.845790341934568 0 0 0
1318 1194 19 0 67.91786370013352 18.9045395819271 0.9623419435608044 0 0 1
663 539 19 0 74.69917286481731 17.252337568089406 1.3032697304543537 0 0 0
15718 0 19 0 77.94963729518604 17.11235698850257 6.200778070263498 0 0 0
16666 0 19 0 83.792741228444 14.623591767879285 3.512860653094452 0 0 0
14863 0 19 0 83.3370901095756 19.279238230338038 6.453497509727776 0 0 1
15772 0 19 0 80.88425894797004 18.953977552092788 2.309356921341416 0 0 0
16037 0 19 0 87.94662982815612 18.294475631977814 3.4829806959628598 0 0 0
13305 0 19 0 68.91505250704994 23.762767874216657 2.05666362011875 0 0 0
1847 0 19 0 65.11070906259744 26.540597496934865 2.0749310963867345 0 0 0
14413 0 19 0 71.543102998352 27.228932142707347 5.1899822922631715 0 0 0
1363 1239 19 0 70.35068199699455 22.82538560291635 7.144032361819835 0 0 1
17071 0 19 0 79.45216038923309 22.12352371325818 6.95802081196326 0 0 0
14266 0 19 0 73.92032194541349 22.996448261533743 3.8840311230314986 0 0 0
13306 0 19 0 76.63166677956995 27.848968080894704 4.461802826748568 0 0 1
17216 0 19 0 80.30977652807786 26.029261992368866 1.1168367192777624 0 0 1
11679 0 19 0 74.69904285181656 26.180671715149355 0.388018300547832 0 0 1
17649 0 19 0 85.03730252988468 22.56530645406747 2.4257654704577223 0 0 1
16735 0 19 0 83.05177507583082 25.652516155649124 5.8139375664735855 0 0 0
17600 0 19 0 87.13717868575971 27.982275216685327 6.380056059951125 0 0 1
1366 1242 19 0 84.32701495224934 28.32903975586278 1.8102785591455801 0 0 1
17679 0 19 0 88.64466567882637 26.133984009122624 2.2173999466664225 0 0 0
2663 0 19 0 72.23856229141613 5.311007407082435 7.355446334921981 0 0 0
13678 0 19 0 70.51480034143212 2.3587740825487487 11.89303111734593 0 0 0
480 356 19 0 68.43096156442023 6.761176748032712 10.232379166106671 0 0 0
572 448 19 0 64.64764968753575 2.6960293932773833 10.865638970567806 0 0 0
2156 0 19 0 75.73007825462864 2.2710818611148462 11.123947911504368 0 1 0
15787 0 19 0 73.53742957667293 6.47881753579661 11.816018398543417 0 0 0
15848 0 19 0 78.42443393004872 6.50258327068944 11.50459464793018 0 0 0
16418 0 19 0 85.7077588090344 4.106256075407711 8.010512395744701 0 0 0
17254 0 19 0 85.94501168383552 1.740634875333662 13.402928248738094 0 1 0
13545 0 19 0 81.15543479223936 1.489528405355086 11.434300435185703 0 0 0
12561 0 19 0 88.60498949210239 0.02796022876614541 9.094611309895514 0 1 0
17620 0 19 0 93.99807407281475 1.2883997285584452 8.075437747958244 0 1 1
486 362 19 0 66.53207422678277 11.523207084128241 7.60897848342575 0 0 0
650 526 19 0 66.96366035476703 14.283854769076088 11.452718198197674 0 0 0
13869 0 19 0 71.51646907148871 10.758913220176241 10.320002284431872 0 0 0
544 420 19 0 65.63179413278051 8.978392007654351 13.818788262268265 0 0 0
17603 0 19 0 75.7814905377418 9.722523924320637 8.130336215351182 0 0 0
15604 0 19 0 75.50035517356685 10.316842695383917 13.815931418430322 0 0 0
553 429 19 0 75.61312767256561 14.162636522117774 10.525571054282548 0 0 0
16380 0 19 0 80.09496368918384 11.50754391801457 11.511317237505411 0 0 0
16796 0 19 0 83.42282243253804 7.377551460307865 10.58470821907697 0 0 1
17472 0 19 0 86.64400968446405 10.74821882590577 13.387426337776088 0 0 0
16980 0 19 0 84.68250003715254 14.090238090172138 9.259591702790276 0 0 0
2523 0 19 0 70.22992249184574 14.72707902395427 7.780438047843956 0 0 0
4732 0 19 0 68.38026676989672 19.100403675464307 9.458950901709715 0 0 0
566 442 19 0 66.2101150613494 19.858308566660185 14.135975702376788 0 0 0
11051 0 19 0 71.12996380441169 16.701829066946793 12.837957901324758 0 0 0
16957 0 19 0 73.63623748907233 18.86313571620355 8.831167418679875 0 0 0
16668 0 19 0 80.35895271685487 16.480797415857392 11.112685205721645 0 0 0
17656 0 19 0 84.41545850582852 19.25261107642954 11.98125747206745 0 0 0
17541 0 19 0 88.13380504160409 17.851483993260057 8.544175900482468 0 0 0
17764 0 19 0 90.51271646574492 21.43459381258644 10.573791030477713 0 0 0
2418 0 19 0 66.47856996202971 25.726862683687642 7.2632348563071085 0 0 1
7569 0 19 0 67.52578726956736 28.15007272758194 14.003469647003982 0 0 0
12161 0 19 0 67.32015881237899 23.913814057565443 11.832207237726765 0 0 0
678 554 19 0 70.76669988058988 26.68823883821428 10.188646318087333 0 0 0
15390 0 19 0 72.0655544490854 22.156543578924744 11.800871969081872 0 0 0
15541 0 19 0 78.31190600352568 22.23521908430109 12.033067079185004 0 0 0
17601 0 19 0 78.78117257825164 26.90796329514311 8.651971046331292 0 0 0
16044 0 19 0 74.73646914706022 23.954405616805165 8.36545667552972 0 0 0
14898 0 19 0 75.02345815454723 26.400595999618858 12.495964289381272 0 0 0
16344 0 19 0 80.26386601243034 26.860189850608094 13.671748794394617 0 0 0
16769 0 19 0 86.87407408573853 22.869712314451263 7.594890528857739 0 0 1
16486 0 19 0 82.95135823207822 23.8548136521549 10.456798331740043 0 0 0
14999 0 19 0 87.48325877879543 25.923983753620224 11.25069944565189 0 0 0
12446 0 19 0 83.35254863708325 28.589226584667934 9.962081753097582 0 0 0
12529 0 19 0 69.45995845841645 6.104531166086249 15.352984195871478 0 0 0
8913 0 19 0 65.17134273360263 4.482414750429761 16.83457850485895 0 1 0
2522 0 19 0 68.72609315046795 6.332405678347846 20.891585919965173 0 0 0
1285 1161 19 0 69.54696916857478 2.221938701446395 18.214764934865386 0 0 0
15355 0 19 0 74.02621673954954 3.4527298911495734 15.882434441053977 0 0 0
16068 0 19 0 77.31235745854265 7.178537086327601 16.990905018150496 0 0 0
17282 0 19 0 77.97796055223677 3.0110581845608753 19.116711768524 0 1 0
15084 0 19 0 73.11353603228814 4.4055233031325844 21.22504784762979 0 0 0
16966 0 19 0 77.54687776587349 0.317525880528148 14.917496718339684 0 1 0
17378 0 19 0 82.19390793178131 0.7198786929539959 21.1937837545114 0 1 0
13543 0 19 0 81.38435059939508 3.8968778307433043 15.765331545372145 0 1 0
17526 0 19 0 86.16362725625292 5.739850113594766 17.03175275008213 0 1 0
13506 0 19 0 82.07355950125718 5.7120791509956605 20.161781657030836 0 0 0
13728 0 19 0 70.1966357416574 12.369813537490797 15.308539932083177 0 0 0
647 523 19 0 70.58369483692883 13.482507024491724 20.86937617774742 0 0 0
504 380 19 0 67.31866786315652 9.91056333754159 18.327327185135953 0 0 0
5777 0 19 0 65.33594990183197 14.454749801601304 21.02921156510121 0 0 0
485 361 19 0 64.53812830947898 13.288547548494487 16.054934402307815 0 0 0
12491 0 19 0 72.77381532436007 8.805091884510777 18.334850386658495 0 0 0
16256 0 19 0 80.01457447936815 11.22328554468355 18.529626763052146 0 0 0
14554 0 19 0 75.59683334200406 12.2089407709491 21.31989279448314 0 0 0
15473 0 19 0 82.92986926243184 13.825713336973699 14.566653868042664 0 0 0
17041 0 19 0 82.27412296101552 8.619998189523349 15.42027331251591 0 0 0
16601 0 19 0 85.19542490492677 10.605562526699016 19.249411386718677 0 0 0
583 459 19 0 67.78286032886365 16.55229704097545 17.200420009075106 0 0 0
12641 0 19 0 70.39516169770168 18.660686211507056 20.906761286889168 0 0 0
600 476 19 0 66.00336428056917 20.1370963328185 20.40048524112918 0 0 0
526 402 19 0 70.7773916576102 20.653598858557164 16.22878879861682 0 0 0
15976 0 19 0 77.40798361249863 14.532510586944744 15.496794863690894 0 0 0
10812 0 19 0 75.34062073063055 19.144017832733283 14.649692311973196 0 0 0
12200 0 19 0 72.85888154484128 16.25801230871715 17.469826803981274 0 0 1
13046 0 19 0 77.81528263338457 16.944540306660393 19.927797727004805 0 0 0
10209 0 19 0 74.92147797939697 21.036115448452563 19.21344826395787 0 0 0
17210 0 19 0 79.7984212246415 21.179851424293062 19.746577952277956 0 0 0
538 414 19 0 80.4725321252372 19.201483358486264 15.261767921495666 0 0 0
17760 0 19 0 87.60626111310552 16.532871349509016 14.59928759854207 0 0 0
17311 0 19 0 82.40302418191608 15.52981324499393 19.728338755429537 0 0 0
17117 0 19 0 86.01326226087699 19.442412292625903 19.10612084948304 0 0 0
17371 0 19 0 88.16271626208368 15.151796073442059 20.31171865269383 0 0 0
9799 0 19 0 65.76101978501653 24.025033205805723 16.605451208891726 0 0 1
646 522 19 0 69.78892450388464 28.510637316105594 18.96381115798423 0 0 0
536 412 19 0 69.856941375508 23.61345501098423 19.83242014072732 0 0 0
15363 0 19 0 71.38506811097433 25.56995393237026 15.475710971831159 0 0 0
491 367 19 0 65.26041817477947 25.75931932963791 21.270648813024767 0 0 0
12741 0 19 0 76.74964197690434 24.771419279743128 16.663255617048808 0 0 0
17062 0 19 0 80.48442206683661 26.972692471848646 19.463647910875842 0 0 0
17575 0 19 0 85.23468461817595 27.68598894537062 14.914720191501965 0 0 0
17346 0 19 0 82.62667415739587 23.399956145724513 16.4030319721142 0 0 0
16504 0 19 0 85.2252919487404 25.925565094112063 19.869685644603706 0 0 0
17613 0 19 0 87.46456108541805 23.21143418583929 15.467367999700913 0 0 0
16576 0 19 0 89.8084535385026 27.89144304801859 19.983843992562125 0 0 0
17763 0 19 0 90.99938010446625 22.993309200194968 19.406792449048496 0 0 0
912 788 19 0 67.30398570698432 1.981042940021025 23.05370385000081 0 1 0
1009 885 19 0 69.74651440026211 5.377778732096854 25.731804656899214 0 1 0
1296 1172 19 0 64.99127431270102 4.625625881154973 26.839853093288664 0 0 0
14858 0 19 0 68.17430183559023 0.7741685180150307 27.95650199160146 0 1 0
915 791 19 0 72.12152221018196 1.2710155923771504 25.1555129113551 0 1 0
16719 0 19 0 77.86854064602966 3.227883381423301 27.20650420726147 0 1 0
16640 0 19 0 74.54677527970446 6.375176946757942 26.446662427214 0 0 0
16104 0 19 0 77.18474833967507 0.48852784047852693 23.3557388852138 0 0 0
17653 0 19 0 87.29690205614415 1.0088220722628845 23.1823450294482 0 0 0
14564 0 19 0 82.93738366198426 4.251614738657833 25.548768975253292 0 1 0
15479 0 19 0 86.84650021575254 6.3627206408111645 22.368393143850696 0 0 0
17303 0 19 0 86.20028350668056 0.4342981748915862 28.325220855876555 0 1 0
675 551 19 0 67.53424397889744 9.057217868104837 28.270036879482607 0 0 0
8578 0 19 0 67.08522539915884 10.284824296637755 23.350706938714588 0 0 0
7512 0 19 0 69.74998314893128 13.641818168530033 26.1597030640097 0 0 0
15866 0 19 0 72.11749877933367 8.92445176192255 22.94646450986571 0 0 0
577 453 19 0 64.66596579136518 13.222670705191266 26.094378597124816 0 0 0
16010 0 19 0 77.4922684345474 7.6284194016283475 22.241742331223193 0 0 0
16560 0 19 0 79.44450857636903 7.648253877884376 27.607265726671834 0 0 0
543 419 19 0 76.63350672115341 10.952770467470772 25.900182708398386 0 0 0
16836 0 19 0 80.28704776998177 13.025110468679452 28.11259656422914 0 0 0
17238 0 19 0 88.39944335431848 11.812481786162389 24.28105021091888 0 0 0
12830 0 19 0 80.95852812373175 11.69185577295868 23.401402961528845 0 0 0
11535 0 19 0 84.83189972857912 10.444514835043783 27.486417321743446 0 0 0
16426 0 19 0 89.05858465326106 8.353505518662464 28.823926934644525 0 1 0
17564 0 19 0 90.11585290928461 13.54667682109861 28.773216873347053 0 0 0
12633 0 19 0 71.23497584558108 18.73666924940451 26.87971874038948 0 0 0
511 387 19 0 67.10649991622603 17.48368625397841 24.590240922494182 0 0 0
1645 1521 20 1 68.84021799248312 21.19432795999316 24.467932486216935 0 0 0
655 531 19 0 67.0598355915285 20.0374298624156 28.809125567097524 0 0 0
15018 0 19 0 78.7515037025478 15.851051246660232 24.645329734588373 0 0 0
16979 0 19 0 74.99716430091141 14.941820507233494 27.766734393290804 0 0 0
16694 0 19 0 78.07476894271747 20.787503709022715 24.557067662925995 0 0 0
12041 0 19 0 74.0021320289287 16.91586620089536 23.268585247392213 0 0 0
13877 0 19 0 75.63515321181757 19.64515216637832 28.71421319109705 0 0 0
16443 0 19 0 84.4740693312778 14.670941806352566 24.985487821257554 0 0 0
17215 0 19 0 85.25698050924123 19.62453517497237 28.630134930154007 0 0 0
16863 0 19 0 82.74002525087633 19.061747831862426 23.860388378815394 0 0 0
17625 0 19 0 88.36540018066398 17.632338243655767 25.78684225910393 0 0 0
545 421 19 0 68.65816969512656 25.535669499111442 25.247983605168347 0 0 0
17610 0 19 0 76.77198169116468 24.82811546064226 22.20941454049222 0 0 0
17432 0 19 0 79.43461258051612 22.94131516133886 28.468324343397352 0 0 0
5690 0 19 0 72.84893074270373 22.242585738337585 23.7705446567652 0 0 0
14980 0 19 0 75.17827563405606 25.11551736767566 27.300037425619195 0 0 0
13539 0 19 0 72.68499275513409 27.21101509906029 22.764009319754038 0 0 0
17661 0 19 0 81.15492872964498 25.01939537669919 24.257666783316274 0 0 0
17641 0 19 0 86.15748517677915 27.14145101406291 24.920907343349324 0 0 0
13931 0 19 0 81.00226580188863 28.183614380655683 27.52346740582835 0 0 0
17639 0 19 0 86.62118558057311 22.791480143248005 23.01183379337008 0 0 0
17198 0 19 0 84.72854938884447 24.637163655387422 28.990084434744144 0 0 0
17539 0 19 0 89.9857527245519 21.974712262628024 27.20279236439643 0 0 0
17154 0 19 0 89.13916702561613 26.7338013905355 28.895265251120325 0 0 0
603 479 19 0 69.1629980021064 4.762483704739065 30.928983203776934 0 0 0
16493 0 19 0 72.00386415195916 6.241175353129456 35.46118371014362 0 1 0
14178 0 19 0 69.72848528509383 1.6992629310604308 34.96678780427219 0 0 0
1374 1250 19 0 64.82988540046264 7.196859104391347 31.54706438725844 0 0 0
666 542 19 0 65.02799875655796 1.9522781018978157 32.47437869613668 0 0 0
16831 0 19 0 76.78837334196304 5.018764971690929 31.657422505512887 0 1 0
17505 0 19 0 78.75433779273061 1.5721818879857152 35.219946855882256 0 1 0
14041 0 19 0 73.40802399696162 2.3749793352570387 29.722396989619373 0 1 0
15671 0 19 0 83.41748109727202 4.759910374633773 34.26660417730944 0 0 0
17301 0 19 0 80.88435295329313 1.9828154371375983 30.824383134994104 0 1 0
17333 0 19 0 84.9933557525983 5.29300686992827 29.625843242677462 0 0 0
17306 0 19 0 84.906733311829 0.003017350723304446 33.60739771976505 0 0 0
11248 0 19 0 68.75344269129039 9.771041548689674 33.53646349248243 0 0 0
17503 0 19 0 71.45115112110814 12.313186355568648 30.5342759113326 0 0 0
9467 0 19 0 70.08183129338708 14.186630603850826 35.65843409279102 0 0 0
668 544 19 0 65.26671398574474 14.027811761047197 36.1481210363602 0 0 0
1324 1200 19 0 72.78818006873361 7.649348810774916 30.893679039666704 0 0 0
17565 0 19 0 76.78753993205852 10.809068746197143 30.91959417225836 0 0 0
14687 0 19 0 73.90545449964597 10.566451675332521 34.74502421921183 0 0 0
1837 0 19 0 78.23767816070195 12.364634620130236 36.13744208483183 0 0 0
15422 0 19 0 80.63496767212273 8.237326293668527 32.180128364163906 0 0 0
15298 0 19 0 81.84096752385368 13.495062233598834 33.36637655848712 0 0 0
14924 0 19 0 85.6922244541891 9.640708181909378 32.87942963552953 0 0 0
16973 0 19 0 85.47554017053434 14.089933623625452 30.411760464683212 0 0 0
16806 0 19 0 87.79145917927646 13.86952075553235 35.169810323342894 0 0 0
540 416 19 0 66.85916589780717 17.889202577666012 34.13693229895031 0 0 0
2255 0 19 0 71.86725598137079 17.264013239059835 31.435322580045057 0 0 0
552 428 19 0 67.26950014738628 14.742838966640445 29.995002343654004 0 0 0
12969 0 19 0 77.11570128615882 15.760088644296053 31.942476808448685 0 0 0
15601 0 19 0 74.22123732392326 21.64148843742275 33.15397011260204 0 0 0
16888 0 19 0 79.25917528119557 21.083046005878693 32.8650583135064 0 0 0
17050 0 19 0 79.44848435421427 17.165230802620854 36.20835131441783 0 0 0
16263 0 19 0 80.44311367311494 17.99122401943368 29.180374960762347 0 0 0
12272 0 19 0 84.37250536675963 17.968715926421687 34.11036286337721 0 0 0
17703 0 19 0 92.89171167669737 14.831396582681776 33.504161828362534 0 0 0
17593 0 19 0 89.1047997768686 18.12048994174806 31.575348727695395 0 0 0
17098 0 19 0 94.15310645557915 21.022601930953126 30.083774648333453 0 0 0
484 360 19 0 68.66702416465665 22.479053493840112 33.50178180847693 0 0 0
588 464 19 0 66.4293783280462 27.107356567255426 34.453030699865124 0 0 0
519 395 19 0 70.64855999632138 27.912602812606792 31.883249964747787 0 0 0
534 410 19 0 65.76335807803409 24.62978292653624 29.744939673005344 0 0 0
14038 0 19 0 72.4577301747836 25.041731518971478 35.80579174976156 0 0 0
10694 0 19 0 71.08832099307067 23.630011054567202 29.206625919186205 0 0 0
14009 0 19 0 75.09525394594242 26.5440723504269 31.82970887645096 0 0 0
17671 0 19 0 77.59136901520222 25.518689015861728 36.03311973546392 0 0 0
17643 0 19 0 80.74846490006394 26.344029161175353 32.0939264709213 0 0 0
15975 0 19 0 84.55763994753107 23.703993667434155 33.85784395394105 0 0 0
15101 0 19 0 87.92684800370952 28.468325191895612 34.2501756626358 0 0 0
17264 0 19 0 90.10572186629084 23.41982869429744 32.377803998494144 0 0 0
10169 0 19 0 66.60248779370515 5.811995896971177 36.31831846465229 0 0 0
1316 1192 19 0 69.7083438785936 5.529877603468785 40.59704483609349 0 0 0
1334 1210 19 0 66.72976258395983 1.8219752386409829 38.613333842126146 0 0 0
1606 1482 19 0 64.9182737184207 3.1442789763467607 42.759068914773344 0 1 0
979 855 19 0 77.49971284150843 6.978075141912193 36.27573899623275 0 1 0
13498 0 19 0 73.94638905803274 2.135560984116785 37.05065028183306 0 1 0
17534 0 19 0 79.57233195827712 3.9348094844625856 39.67476192771357 0 0 0
17407 0 19 0 74.28236329867646 1.9264898679579905 41.92965302807954 0 1 0
1300 1176 19 0 77.33143065487023 4.962641625655476 43.45593328843279 0 0 0
17576 0 19 0 82.75305176080765 1.0845369600398003 37.84576240015564 0 0 0
17386 0 19 0 84.04352215627615 6.275569749218174 39.36576489084762 0 0 0
17577 0 19 0 87.5316644745654 6.653369589950145 43.3717981174002 0 0 0
17323 0 19 0 84.12252010045879 2.543588980297283 42.608253061461554 0 1 0
1385 1261 19 0 65.82416936251273 8.912958275874459 40.73383057561748 0 0 0
1342 1218 19 0 69.9976555315683 9.846410207802766 38.136235974756715 0 0 0
541 417 19 0 71.2445372254618 10.489243067639748 43.24804473186044 0 0 -1
6025 0 19 0 67.40188677055976 13.458528705414771 40.45452338845256 0 0 0
1603 1479 19 0 73.99037313369044 7.280275669504836 39.69522008893939 0 1 0
14674 0 19 0 78.86820128823096 9.967437035915339 40.1637222950069 0 0 0
12497 0 19 0 74.49066773251852 12.339873903149668 39.87919899670456 0 0 0
17463 0 19 0 82.84437628265614 10.183425081652048 37.03947314619025 0 0 0
17174 0 19 0 84.37972721822072 11.68777760860323 42.13108887182748 0 0 0
17574 0 19 0 88.20582328169144 9.52300349617467 39.20856103839402 0 0 0
15732 0 19 0 81.67455500214204 7.335782463323288 43.49318908159788 0 0 0
15864 0 19 0 71.70204941078069 16.780241089348113 40.5519707650891 0 0 0
10199 0 19 0 71.0316544576911 20.180686642251224 36.87995450686275 0 0 0
9406 0 19 0 67.38032308081104 18.146706529675555 39.308046130091384 0 0 0
1361 1237 19 0 70.03054811314506 21.582452170433335 41.720420069712844 0 0 0
13624 0 19 0 74.54728890764748 15.866504599523152 36.27652053188828 0 0 0
13160 0 19 0 76.22372289459975 20.679052199296752 37.89883114490317 0 0 0
17312 0 19 0 77.00507977907994 16.29574771189871 40.66252482308943 0 0 0
10728 0 19 0 80.26318940626672 19.9676281770337 41.28508199569731 0 0 0
15574 0 19 0 81.92304488598884 21.613389189795182 37.12841088603824 0 0 0
14950 0 19 0 83.28731621332369 15.319833703861132 38.74131561322533 0 0 0
15974 0 19 0 88.06348024858569 15.559556720742057 40.59752679467526 0 0 0
16043 0 19 0 85.91861552242796 20.074784477192186 40.5135352008878 0 0 0
13457 0 19 0 89.87195255340283 18.699386972239598 37.06454570210632 0 0 0
487 363 19 0 69.81944765553793 26.111763086680508 41.12565266662998 0 0 0
1362 1238 19 0 66.51791044704247 23.13056856189188 37.89018226537056 0 0 0
13032 0 19 0 65.06002743158129 25.396939637232204 42.55506529511561 0 0 0
1402 1278 19 0 65.40834041194529 28.823449270625932 38.91689281364415 0 0 0
13518 0 19 0 79.2141008155641 24.793185290494584 40.78865502767576 0 0 0
9599 0 19 0 74.25527191931938 24.40408288942213 40.44086037601596 0 0 0
17584 0 19 0 82.86590429666722 27.901119076756103 36.69389577646072 0 0 0
17592 0 19 0 87.71180380221823 23.88405800171157 38.03127670112673 0 0 0
16795 0 19 0 84.06746338316385 26.377718353833632 41.09754480120245 0 0 0
1567 1443 19 0 70.04536824084238 1.1399759569906087 44.120971312300604 0 1 0
10237 0 19 0 70.47118068037958 4.735286865616775 49.11555363268579 0 1 0
954 830 19 0 66.56112271055594 2.325294531809823 47.35482754920124 0 1 -1
13673 0 19 0 72.46823349785795 6.121811438739358 44.7771014672191 0 0 0
16670 0 19 0 73.98581514720657 1.212883179721444 47.10079659734186 0 0 0
16990 0 19 0 76.10516811974334 5.647421900822611 48.37717546255067 0 0 0
16361 0 19 0 85.60456389651857 3.7314763450036597 47.03747204482627 0 1 0
17121 0 19 0 80.69498930560991 4.496168450058006 47.46297194672494 0 0 0
13907 0 19 0 88.87575123307387 1.2413974925005293 44.139652861681675 0 0 0
1376 1252 19 0 67.54081827563336 7.58189164654995 45.88452231864477 0 0 0
14463 0 19 0 67.78208841185429 12.424980393835705 46.6623994268558 0 0 0
1367 1243 19 0 68.14048005086588 9.633966359015592 50.56841450821903 0 0 0
14504 0 19 0 79.8320808861515 13.507236613426619 43.77687334216717 0 0 0
16789 0 19 0 75.75862045233642 9.859637132738468 44.067869168799376 0 0 0
1590 1466 19 0 73.03306144437079 9.747732981818526 48.52276496372682 0 1 0
17309 0 19 0 79.16978418975441 9.529603289337514 47.62863051127555 0 0 0
17500 0 19 0 76.89279867432708 13.57753770962557 48.35625159879369 0 0 0
17349 0 19 0 85.69752926094412 8.930167644339457 47.06181404963119 0 0 0
16394 0 19 0 82.89935802421874 13.015114688481075 47.733131915455054 0 0 0
15421 0 19 0 87.4673631848723 13.561953892244233 45.53471047120401 0 0 0
16543 0 19 0 90.2892475619689 11.336513216547367 49.62719259704376 0 0 0
1354 1230 19 0 71.84271266210229 14.889140174083659 48.31413447534167 0 0 0
4612 0 19 0 66.96232146953737 16.668978306922817 44.2623931260671 0 0 0
1269 1145 19 0 66.41103521842017 18.947166551509323 48.79520947643685 0 0 0
1345 1221 19 0 70.510885768268 19.320877750154466 45.92386944589568 0 0 0
8586 0 19 0 74.41895593122125 14.747973555045068 44.40388185505585 0 0 0
16279 0 19 0 75.78255577860429 19.73774810352337 43.77196175685232 0 0 0
17025 0 19 0 75.48618826743423 18.388646201894456 48.65115608986846 0 0 0
17101 0 19 0 83.92088912223144 16.833766593488825 43.76724208946405 0 0 0
17617 0 19 0 84.36431178903462 21.521422201188432 44.66599929852897 0 0 0
17533 0 19 0 85.76925685322404 17.43039336609993 48.76794786101744 0 0 0
17368 0 19 0 80.68162135178011 18.03003072082877 47.33671470344414 0 0 0
16061 0 19 0 89.35172462621367 19.636441535846036 43.9184893597319 0 0 0
1409 1285 19 0 66.99699173961325 23.15776056229055 46.21207107783667 0 0 0
1381 1257 19 0 69.77328237831064 24.522474106317212 49.98535817477329 0 0 0
1392 1268 19 0 69.22046185845656 27.81252535753557 46.49824280867057 0 0 0
673 549 19 0 72.1719594948645 24.289819565582366 45.4485212534301 0 0 0
17288 0 19 0 79.1484535247894 22.45282381955643 46.22513650108717 0 0 0
1399 1275 19 0 72.96977512021682 27.906685105151052 49.12406556462941 0 0 0
1333 1209 19 0 75.28643269230038 22.98039595024508 49.359365983334456 0 0 0
15466 0 19 0 76.3898963894268 26.841286208044675 44.33879123977595 0 0 0
1858 0 19 0 78.69903506011592 26.87076239942689 48.88311382186088 0 0 0
9254 0 19 0 85.7055258872414 28.317928353928462 50.20956655924875 0 0 -1
16682 0 19 0 88.23733646725853 24.87876058924093 44.26458655259116 0 0 0
17676 0 19 0 85.99311683536945 22.768450743992656 49.471790754858084 0 0 0
1278 1154 19 0 82.92320102330387 25.823328910828263 46.473368161499025 0 0 0
16227 0 19 0 91.56682883858177 22.57534020015096 47.54475144928951 0 0 0
10573 0 19 0 68.92409538785405 1.3683338026941607 53.638680420548745 0 1 0
612 488 19 0 65.88757400879766 5.511875414339026 51.31105271596235 0 0 -1
1369 1245 19 0 71.00916638755335 6.870196395184653 53.65351505256931 0 0 0
17525 0 19 0 72.50658102907661 2.0557933884158994 56.79643284848566 0 0 -1
1830 0 19 0 73.7440098103364 2.86169973956167 52.2463633888999 0 0 -1
17528 0 19 0 79.1422761058389 4.861776487546166 52.35109687846016 0 0 0
14914 0 19 0 75.5238110693 5.949997168926078 55.657025934266365 0 0 -1
14743 0 19 0 77.40396034246214 1.2568689117981064 55.91170104025682 0 0 0
16988 0 19 0 84.41498127332468 3.0766070564906522 52.008001934774825 0 0 0
17123 0 19 0 82.08696994166094 5.040863334056015 56.107040090009626 0 0 0
16744 0 19 0 87.58497280749059 7.04813914829186 51.468468947949745 0 0 0
15086 0 19 0 85.35356695079084 0.6786122720923357 56.273739480500055 0 1 0
17189 0 19 0 89.95984640745375 4.7292175197033215 56.82279325238107 0 0 0
16770 0 19 0 90.21331589236127 3.275878814523718 51.737763947588896 0 1 0
550 426 19 0 67.04773981821157 8.725467435056753 55.245480640811074 0 0 -1
615 491 19 0 71.199789411388 12.181099955658699 53.270122270515934 0 0 -1
664 540 19 0 67.52533456767272 13.815929669123667 56.789454848086706 0 0 -1
17217 0 19 0 79.46993028851153 9.30086225021433 55.96302000305715 0 0 0
13577 0 19 0 76.6368437230523 8.986976482898669 51.942962059189696 0 1 0
12699 0 19 0 74.77047450530888 11.8771083379128 57.031737214552685 0 0 0
15273 0 19 0 80.71038256759958 14.102975157131164 51.93145692625628 0 0 0
12503 0 19 0 85.8330665923649 12.671289506744808 51.62366732908871 0 0 0
17361 0 19 0 82.86458036328122 12.879020844863074 56.09251883837411 0 0 0
15103 0 19 0 81.96171443704367 9.134493852679949 51.757238741827926 0 0 0
16316 0 19 0 86.15486652934605 8.902595971649864 55.938752923909114 0 0 0
12522 0 19 0 67.63311810392011 15.18754805810858 51.89723257461246 0 0 0
14370 0 19 0 71.34355670032276 16.92155832773587 55.11221692725159 0 0 0
12372 0 19 0 70.78018442746918 19.4671249919641 50.935040871476495 0 0 0
549 425 19 0 66.58966596426436 19.413617834034287 54.25477851440599 0 0 -1
618 494 19 0 72.01821201823344 21.54950819572819 57.08489033587944 0 0 -1
13569 0 19 0 75.60450659054219 14.998825927215233 52.720235972963785 0 0 0
12335 0 19 0 79.36421249812827 17.069051909403445 55.95962514543709 0 0 0
17197 0 19 0 79.4691325175853 20.232497043947223 51.24891176480716 0 0 0
16882 0 19 0 74.89991266578443 20.105183928393068 53.513068738696454 0 0 0
17633 0 19 0 84.891039933787 17.86149557091413 57.67815882627572 0 0 0
17591 0 19 0 83.94563161747152 18.958851222230173 53.014894340387286 0 0 0
17582 0 19 0 89.75219769928016 18.11806385780554 51.86880535369907 0 0 0
17182 0 19 0 93.18421443126464 19.45958821735621 54.50594778809942 0 0 0
16678 0 19 0 89.67410569559613 21.101827529971082 57.97768073514088 0 0 0
1341 1217 19 0 64.67295419300437 23.115232713100784 51.09054013704286 0 0 0
1360 1236 19 0 66.45341880328101 28.252588918171995 51.588819821607 0 0 0
1336 1212 19 0 67.59970800591124 23.82004991050917 55.06647900920242 0 0 0
1377 1253 19 0 69.93465031169521 28.04954624547378 57.98671572307738 0 0 0
17092 0 19 0 77.34664884075274 21.75388060557444 57.83457694124467 0 0 0
13863 0 19 0 72.61991950934502 25.37745243770072 53.94043209055485 0 0 0
2148 0 19 0 77.53021460111117 24.629413236647487 53.65064288878382 0 0 0
17057 0 19 0 82.20756393140698 28.112531585472258 55.12669702517273 0 0 0
16214 0 19 0 86.13593493425998 24.425761742759352 54.998342543750304 0 0 0
16910 0 19 0 81.9602690262651 24.847835957527867 51.70397731180793 0 0 0
17321 0 19 0 82.23129526062776 21.991618216368977 56.403683293855245 0 0 -1
17110 0 19 0 91.31237758188847 24.650280050888924 53.0992010228674 0 0 0
10600 0 19 0 67.33479239632804 30.830188579210947 3.337515497618254 0 0 0
1281 1157 19 0 69.66546244938178 35.313034039171384 5.25536479299187 0 0 1
1383 1259 19 0 64.99970214368136 34.36158491622605 6.42356199157549 0 0 1
14712 0 19 0 76.95123188443351 34.788997152150955 1.6434771524766028 0 0 1
16587 0 19 0 72.58962652671313 31.928154261349633 2.4857192874422696 0 0 1
9731 0 19 0 76.14611633941837 34.15231258147714 7.016241781767775 0 0 0
16131 0 19 0 80.58908967188987 31.306635559312742 4.100891591681404 0 0 0
17637 0 19 0 85.73321476390402 33.20670154377404 5.785000770491284 0 0 0
17408 0 19 0 81.68470483431399 35.47725428650881 6.519267824012647 0 0 0
17648 0 19 0 88.91066039761745 32.69046107235316 1.996649258460467 0 0 0
1596 1472 19 0 72.23490375376879 36.35082210986483 0.8671368287939846 0 0 1
980 856 19 0 70.2476280084343 40.811656676803146 2.6471523687499166 0 0 0
1591 1467 19 0 65.91591412160906 38.33757698637345 2.5596400389626344 0 0 1
1016 892 19 0 65.29496283160013 42.69564073738503 0.4034433860615767 0 0 0
17367 0 19 0 80.46725854835282 40.45306868598962 0.2742982909323242 0 0 1
16874 0 19 0 73.65155121346861 38.413174498217515 5.315856638151364 0 0 1
10561 0 19 0 78.55509733281912 38.44260563380923 4.496305205914568 0 0 0
935 811 19 0 75.58520201482429 40.60358133118478 1.2642859943841018 0 0 0
7951 0 19 0 78.9905220507965 43.12949317655162 4.019658257616755 0 0 1
17155 0 19 0 84.11525846530799 36.88472181571518 2.0607373109638374 0 0 1
16802 0 19 0 83.2759604675118 41.56116378609518 3.9094646236923456 0 0 1
17506 0 19 0 88.14744749878234 41.89631676908824 3.8523708537269963 0 0 0
1030 906 19 0 65.57852418115469 43.88413711692175 5.538798377597791 0 0 0
14062 0 19 0 68.27316281033941 49.78187117486234 5.491676969610991 0 -1 0
14802 0 19 0 68.787281781134 46.00034023118835 2.472579340016923 0 0 0
1580 1456 19 0 64.47011590302459 48.59784972195834 2.5633780727932276 0 0 1
988 864 19 0 73.43364843283541 44.44156411548914 3.8250517453915522 0 0 0
17405 0 19 0 76.93721712827106 47.938974830196486 6.405964591758133 0 0 0
16258 0 19 0 73.7250808650258 49.626463268257744 3.3733820790519724 0 0 1
12348 0 19 0 77.37287523110304 47.06382420896205 1.3330531183928467 0 0 1
16432 0 19 0 82.01245258838931 46.954561415334005 4.371119651159849 0 0 0
17413 0 19 0 87.85996693277714 47.34901639909066 4.224713237158092 0 0 0
14511 0 19 0 84.01569697891595 48.95151172675032 0.42707438764047484 0 0 1
586 462 19 0 69.28125613884006 56.1727058354413 0.45345771410556485 0 -1 0
560 436 19 0 66.84159406454032 57.92152691824216 6.912916497588739 0 -1 0
8382 0 19 0 65.53573325528447 53.616160251253284 3.0223482959426855 0 -1 0
17345 0 19 0 70.05205966974943 54.73678435023713 5.160590889220793 0 0 0
2194 0 19 0 69.55247864248864 51.39036064040142 0.6167789257445588 0 0 0
17623 0 19 0 79.19656775290046 51.1375839802521 3.290741672643508 0 0 1
16838 0 19 0 76.37930234829554 53.384188992102814 6.327548449639373 0 0 1
16612 0 19 0 73.60770568046733 55.084596733232544 1.9339663386047161 0 -1 1
15342 0 19 0 80.9853326125948 55.512864196384626 4.563167545619686 0 0 1
17704 0 19 0 84.59742955668055 52.058569784767926 4.9704685834476 0 0 1
17524 0 19 0 85.35900978208609 57.31913860619474 3.486970291424492 0 -1 1
17680 0 19 0 88.57102104230569 51.401438068781495 0.05649227944698505 0 0 1
17152 0 19 0 88.72266377009352 54.81625115714279 5.522541960600816 0 0 1
17059 0 19 0 88.90997625078653 56.390859320980255 0.5351155125753808 0 0 0
959 835 19 0 69.07170234693214 31.099856496422344 7.935476434581524 0 0 0
10215 0 19 0 65.07296445560917 31.163765894533693 10.77768814880359 0 0 0
1672 1548 20 -1 68.00483235352343 35.423528378752316 9.036971925217513 0 0 0
920 796 19 0 69.3960754873608 33.549017437680895 12.330456908337862 0 0 0
15408 0 19 0 72.0145022137305 30.167675680703066 14.190476637459389 0 0 0
17203 0 19 0 75.01747207625856 33.772081830638406 11.799863876656799 0 0 0
16049 0 19 0 79.33448680067148 31.815603482441848 9.757214947229178 0 0 0
13973 0 19 0 74.38747939038919 29.77102070695403 8.530990844318161 0 0 0
17322 0 19 0 84.82929116533141 34.405125628881734 10.347510516565288 0 0 0
15945 0 19 0 82.16984962086408 32.2590798517079 14.3129342554184 0 0 0
5133 0 19 0 88.02550627349544 30.60064466189798 10.684084404202771 0 0 0
1011 887 19 0 70.089599285497 41.29382173486038 7.4821859057077456 0 0 0
955 831 19 0 65.52446403276609 39.00937996751304 7.908126193827404 0 0 0
662 538 19 0 71.76418464894923 36.82676770360637 9.833772782263006 0 0 0
1000 876 19 0 68.02091501395768 38.765798674613386 12.11503395199109 0 0 0
16760 0 19 0 72.45415034847797 41.21026789456269 11.577983271095363 0 0 0
948 824 19 0 80.4755635957348 36.757310294996515 12.130570516320416 0 0 0
964 840 19 0 77.17709927617103 38.184125195280345 9.286503472708572 0 0 0
16914 0 19 0 75.74718076586282 42.6021644827046 7.610391547962289 0 0 0
17385 0 19 0 78.63979297015563 42.141068219356406 12.188271362653303 0 0 0
16911 0 19 0 75.63798458775888 38.43443891993436 13.927263026447541 0 0 0
17064 0 19 0 86.02645697021083 38.259378219072396 7.976518585316542 0 0 0
15208 0 19 0 81.44560886358742 40.20830650996308 8.920100886720814 0 0 0
17017 0 19 0 84.5354444955255 39.50400629684847 12.968797664747896 0 0 0
17366 0 19 0 88.50301718448696 42.24740408725983 13.403348684155814 0 0 0
11663 0 19 0 67.03160257281014 43.79066666586942 10.454157785569597 0 0 0
4901 0 19 0 67.79753802380156 48.78383480887438 10.281118251430877 0 0 0
1015 891 19 0 71.54535892582888 46.084920529948846 8.38728684699144 0 0 0
13287 0 19 0 70.74238591677411 45.29695317754798 14.065978632624232 0 0 0
14881 0 19 0 75.36162259822105 45.92754258129397 11.713681790750245 0 -1 0
16355 0 19 0 76.60244932072077 50.62252006772014 11.714523364270777 0 -1 0
16373 0 19 0 79.7823904259791 46.725468114696355 14.285494653809824 0 0 0
16127 0 19 0 85.19297762494374 43.535242958744895 7.81237942343126 0 0 0
15952 0 19 0 81.01588473199091 45.41503402126407 8.93129248233104 0 0 0
15123 0 19 0 83.6481184665693 44.39962609747905 12.588917515862683 0 0 0
16849 0 19 0 83.23278180394219 50.17042452884616 12.747884312602807 0 0 0
16593 0 19 0 87.76739201120382 48.12148080134812 14.00722431480162 0 0 0
16075 0 19 0 85.47719830920772 48.30268980822172 8.815128731312683 0 0 1
14221 0 19 0 90.89292343631446 45.28153941696789 9.259804847845752 0 -1 1
15640 0 19 0 72.13100756617631 51.140131816277815 8.086224696475444 0 0 0
17310 0 19 0 71.6433642713814 50.93931386489225 12.962634937646367 0 0 0
910 786 19 0 66.73424196204603 53.22409980738185 12.83022709949619 0 0 0
904 780 19 0 70.08092854549005 55.264483972571156 9.836077281810894 0 0 0
956 832 19 0 65.35547523577787 52.91533954532052 8.219010324987048 0 0 0
14398 0 19 0 67.0316581533893 57.95364426248203 14.14549994335054 0 0 0
14188 0 19 0 74.85761260169193 55.064736493566315 10.79386880849124 0 0 0
17450 0 19 0 78.33766529194807 57.41445291674324 8.076755647083584 0 0 0
17695 0 19 0 80.07872054174068 54.25236450659752 11.854608467321702 0 0 0
16671 0 19 0 80.65668873594262 50.9623633817781 8.212438524739152 0 0 0
17102 0 19 0 83.77349277223188 55.791225059729065 8.369069367466475 0 -1 0
17562 0 19 0 86.34092206515811 54.20397097936666 12.372267477441692 0 -1 0
15885 0 19 0 89.31961635420285 50.95421255309889 10.446328304881643 0 0 1
17762 0 19 0 90.49458575843266 57.50035091479509 14.241830976972764 0 0 0
1022 898 19 0 65.36456803129107 34.27619575950287 15.240620161084383 0 0 0
516 392 19 0 66.86736789254186 34.50313594642435 20.94873782835601 0 0 0
593 469 19 0 70.16362831617067 32.96661572523793 17.582233218727026 0 0 0
636 512 19 0 65.48909028163455 30.68538573551601 18.200758039964555 0 0 0
16466 0 19 0 75.20129647800873 29.713883925103634 19.2632306120629 0 0 0
15182 0 19 0 77.2060471975128 30.500848353975034 14.798297084911747 0 0 0
4775 0 19 0 75.46298653946731 34.72344940909612 16.916297391739985 0 0 0
14982 0 19 0 79.31351897115472 31.994242199205097 19.059956676439548 0 0 0
548 424 19 0 84.81494239797979 30.997843059635326 18.61445140568472 0 0 0
15603 0 19 0 88.16754715449645 32.83711578301832 15.253654104562923 0 0 0
16641 0 19 0 92.34704091559645 35.37732566248737 19.000569018871772 0 0 0
984 860 19 0 65.84911266986371 41.8576728059408 20.65050464486388 0 0 0
17329 0 19 0 71.21959110090407 36.96882860962542 15.401014392983786 0 0 0
973 849 19 0 66.81059556993168 38.529132369434095 16.52514909925261 0 0 0
932 808 19 0 71.00075356537577 41.38544246760212 18.3236323979108 0 0 0
11999 0 19 0 66.40746408916743 43.10061508230502 15.519135154755618 0 0 0
969 845 19 0 72.50359819028762 36.7764771262084 20.49067927241308 0 0 0
17136 0 19 0 80.24807813108323 36.338146039090134 17.314067347979496 0 0 0
14285 0 19 0 76.85206819198636 39.20129140988149 19.11111824783491 0 0 0
16591 0 19 0 75.15021907055673 42.809327984159104 15.718258826058968 0 0 0
17650 0 19 0 80.32076109858086 42.04307780438266 17.196519430880105 0 0 0
16811 0 19 0 84.91111638074763 36.47937005268249 16.686369210382345 0 0 0
17700 0 19 0 85.6443085552354 42.32042054215117 17.071499743570584 0 0 0
17325 0 19 0 82.71066150542416 39.626635737814176 20.746666884754344 0 0 0
903 779 19 0 66.85073812468538 49.72448858096041 20.13491909895525 0 0 0
913 789 19 0 69.12599032762535 45.74341027842594 19.09722459745762 0 0 0
16722 0 19 0 67.4338683859693 48.47016752147687 15.352313095715006 0 0 0
15648 0 19 0 71.27189730372815 50.73808584246668 18.20499467104965 0 0 0
16891 0 19 0 74.98032838855009 48.140743403422306 16.056519848459047 0 0 0
14286 0 19 0 73.90278325951202 45.1374161523931 20.343124077530334 0 0 0
17150 0 19 0 78.90935472473437 46.638439649571424 19.016333752924286 0 0 0
16074 0 19 0 83.68104137249733 47.46970653649424 17.157509129586444 0 0 0
16042 0 19 0 81.78314630545201 50.69243953388397 20.571327392011703 0 0 0
14461 0 19 0 86.66342953623924 49.83094129123562 21.690647485529983 0 0 0
17595 0 19 0 88.50679182439691 46.24426274389231 18.738119898367632 0 0 0
16847 0 19 0 72.13016566528657 56.80793529082426 14.504173653914881 0 0 0
14916 0 19 0 67.539067266447 53.60788819891088 17.254616167357973 0 0 0
13465 0 19 0 68.99133265347074 55.206910072747995 21.673337845702417 0 0 0
11335 0 19 0 65.11092139425783 57.80851621203253 19.10147062973118 0 -1 0
17159 0 19 0 76.25841775528345 50.813142776463515 20.27832237686453 0 0 0
16281 0 19 0 79.71591469057245 51.01766325453691 16.06841191033882 0 0 0
16297 0 19 0 73.4803267223289 57.769728563724236 19.01600570742375 0 0 0
15998 0 19 0 75.19691553174704 53.294178626676114 15.831791481086347 0 -1 0
16797 0 19 0 78.62548495962547 55.67380193365079 19.41355617601985 0 0 0
16680 0 19 0 84.86670284501056 53.129589674326766 17.772029838517966 0 0 0
17647 0 19 0 82.2876086934657 56.63007842423047 15.716120308415075 0 -1 0
16513 0 19 0 86.66029047575798 57.57238544792679 18.32421819491543 0 -1 0
17683 0 19 0 89.98721307457701 54.595768741280686 21.253212730542547 0 -1 0
14630 0 19 0 89.49024998120811 52.46996695138216 15.936922898584715 0 0 0
672 548 19 0 71.87032671536022 32.42553880676737 22.285999549654264 0 0 0
14633 0 19 0 71.81598407179159 29.296117117203565 26.99455755444623 0 0 0
601 477 19 0 67.51627276536473 30.312567798583412 23.075732092689375 0 0 0
9786 0 19 0 71.13755773618325 35.737163029508444 26.014651137152395 0 0 0
924 800 19 0 65.82687091897894 34.61327037948837 25.612112398490893 0 0 0
1035 911 19 0 67.26175883798786 30.137666962098688 28.507072942432668 0 0 0
17392 0 19 0 76.70575223212076 30.226771671665244 28.742596280132393 0 0 0
12720 0 19 0 76.19393099208374 34.50284516816505 22.024560164052517 0 0 0
1037 913 19 0 76.0460479829165 34.84510365701694 26.932944127719313 0 0 0
17364 0 19 0 78.04290511798986 29.41484099988188 23.81480676721544 0 0 0
16631 0 19 0 82.87623382681561 34.76830299383147 21.92904207302958 0 0 0
16317 0 19 0 82.92510891403046 30.17562498682176 23.078483981850226 0 0 0
17543 0 19 0 87.93372569161667 32.061982763866695 22.527137635793146 0 0 0
14219 0 19 0 80.77402684110436 33.663164431634456 26.015461956448352 0 0 0
17481 0 19 0 85.17547685608908 33.25262860386094 27.067994552680812 0 0 0
17488 0 19 0 89.90592021404419 31.04461174499447 27.002861621792256 0 0 0
919 795 19 0 64.82930989728447 39.91394966370573 26.041867387238007 0 0 0
676 552 19 0 68.7335134681767 39.04587453893401 22.930405765487034 0 0 0
995 871 19 0 70.62060955274166 40.73104563686958 27.581437190015205 0 0 0
17327 0 19 0 77.06177185247691 39.63356064867199 28.757856034327762 0 0 0
17490 0 19 0 74.59289802009148 39.93442139413912 23.98367256980859 0 0 0
17538 0 19 0 78.6241273654603 42.796655364628116 22.41792594221048 0 0 0
17108 0 19 0 79.23702065311235 38.31075660517141 24.348867807643096 0 0 0
14602 0 19 0 87.23475720190183 37.043652416907356 22.52484822760451 0 0 0
17469 0 19 0 83.74421968817946 37.94280553990622 26.221307959867755 0 0 0
17468 0 19 0 82.42216995643982 42.69565373880159 26.197384294429312 0 0 0
17699 0 19 0 88.12044525220715 41.75043937396404 28.45491810919956 0 0 0
17547 0 19 0 87.28652336215589 42.192193154153586 22.059521166334477 0 0 0
17663 0 19 0 89.48940072846642 36.61253000029414 27.098484746360594 0 0 0
15872 0 19 0 70.11938127887558 43.98833569842152 23.73294591209065 0 0 0
993 869 19 0 67.23250794324403 44.9738893993268 27.769225343967292 0 0 0
12107 0 19 0 65.53515359887047 46.165942108410036 23.29951379366551 0 0 0
992 868 19 0 71.37785463743599 49.542833165062255 22.713250052693834 0 0 0
939 815 19 0 66.36295172627331 50.63089579736097 25.469169790225088 0 0 0
14277 0 19 0 70.47159225570917 48.56235736074665 27.424493893620326 0 0 0
13338 0 19 0 78.62191977199143 44.712257945826515 27.983247557426953 0 0 0
15933 0 19 0 74.35111253887663 45.09595827534516 26.45581844119518 0 0 0
17399 0 19 0 78.0386169916955 47.419840708305934 24.168134647350357 0 0 0
17389 0 19 0 79.30634054031695 50.13148731211094 28.99091838328001 0 0 0
17627 0 19 0 83.24163539624354 44.86503106381822 22.096436791186203 0 0 0
17396 0 19 0 82.7888411894436 49.32042884736074 24.947099418964843 0 0 0
11677 0 19 0 86.29057022345422 45.687229133737056 25.905708684898723 0 0 0
14911 0 19 0 65.3569831959043 56.03927361720404 25.027528432332428 0 0 0
16303 0 19 0 70.17873944430355 53.52739220246497 26.339798180190453 0 0 0
15482 0 19 0 74.74562105686954 51.281251226529605 27.015886238172392 0 0 0
16916 0 19 0 73.94443190142387 54.44673810202941 22.724370749980707 0 0 0
16207 0 19 0 74.92146513288046 56.20685621695863 27.77158512519628 0 0 0
16953 0 19 0 79.01799985185971 52.9721107917592 24.281488333649502 0 0 0
10335 0 19 0 81.49601144324595 57.56200637503314 25.881130744579202 0 0 0
17546 0 19 0 84.38854891811282 54.6679225456472 22.78604788516505 0 -1 0
15279 0 19 0 87.94186691614314 53.48311702244802 25.758952648046545 0 0 0
17645 0 19 0 83.14051978391628 53.31727904442964 28.286364534693977 0 0 0
991 867 19 0 68.47865224834588 32.16174756421783 32.97441674643859 0 0 0
1612 1488 19 0 72.26788280277272 36.04850831500159 35.30328667030957 0 0 0
974 850 19 0 72.63806361677719 33.017698721836055 30.201790430229597 0 0 0
15127 0 19 0 76.98517958490525 34.171713537839935 32.28360766984337 0 0 0
1346 1222 19 0 74.11320765571564 31.076741504393173 34.21857559246631 0 0 0
15683 0 19 0 78.84461004684309 30.36164958227777 34.85162516398731 0 0 0
12053 0 19 0 80.8675902848827 34.82951741491713 35.41305424373584 0 0 0
16947 0 19 0 81.23024626880805 32.38595072625218 30.768430647401956 0 0 0
14696 0 19 0 85.01105902778849 35.67519244408331 31.612580096611367 0 0 0
15932 0 19 0 84.89469107043911 32.0619061661001 35.08792529709324 0 0 0
17433 0 19 0 84.85690248021731 29.426959543057574 30.045040766583156 0 0 0
16364 0 19 0 89.63481389206795 33.143647675293174 31.33819566033707 0 0 0
1021 897 19 0 68.1614867256665 36.37485093911344 29.94670628253646 0 0 0
982 858 19 0 67.63992537256067 37.68625194904019 34.88933043993117 0 0 0
2587 0 19 0 71.21601088240226 41.15749064033042 34.14502906717227 0 -1 0
1570 1446 19 0 66.22847773661732 41.26391610289372 30.576352862163443 0 0 0
1586 1462 19 0 66.6553948436012 42.73398141196307 35.826381924800174 0 0 0
1033 909 19 0 73.06481892401932 38.00186220054887 30.684287961610483 0 0 0
12965 0 19 0 76.73477482521078 38.81057415779448 34.434366890652605 0 0 0
16969 0 19 0 79.040423749304 42.4077285324715 32.39443328885309 0 0 0
8149 0 19 0 73.92747691473429 43.095658934057674 30.67238749909523 0 0 0
16475 0 19 0 80.50010871377678 37.35931400328428 30.80053454742408 0 0 0
17052 0 19 0 84.07665107820392 41.36465271545147 30.71331408867263 0 0 0
17474 0 19 0 82.06705907589686 39.865708347494405 35.35130391487644 0 0 0
16805 0 19 0 87.42607759287485 42.29008944351833 34.15820567866253 0 0 0
17597 0 19 0 90.2901611857126 37.974388837544616 31.77661749452461 0 0 0
11218 0 19 0 67.04354946839362 50.27831115962017 31.14792886040604 0 0 0
1032 908 19 0 70.27724680357895 46.262089723202614 32.06484595182218 0 0 0
9743 0 19 0 67.45886655131818 48.31036493234445 35.836813593305536 0 0 0
983 859 19 0 64.80888874589522 45.86653102598757 32.44822521825582 0 0 0
17415 0 19 0 75.27729139382319 44.018035364293176 35.67141074305426 0 0 0
16456 0 19 0 74.88482000557389 47.89065016118144 30.4162855881907 0 0 0
17078 0 19 0 78.4337381807419 47.18621317863199 33.993264680585696 0 0 0
1564 1440 19 0 72.72400838979588 49.52149274773947 34.99887440180437 0 0 0
17296 0 19 0 83.09995574163246 45.253302713309246 33.814219967713754 0 0 0
17414 0 19 0 84.73827016910163 49.05857246307487 29.474437238369653 0 0 0
15220 0 19 0 87.49859698839278 47.42914381559373 35.593716830013676 0 -1 0
1375 1251 19 0 66.45335568938125 54.777188458342266 29.730713158570616 0 -1 0
515 391 19 0 71.12204041094454 56.721106936957916 31.40313951763141 0 -1 0
16276 0 19 0 69.87471395064027 53.39917753262157 35.22818523725911 0 0 0
8873 0 19 0 71.69432609769571 51.9490922942071 30.894300869991227 0 -1 0
15894 0 19 0 76.6546592281295 51.9160803133921 32.81258297717879 0 0 0
17242 0 19 0 75.11695726189643 56.06909195695978 34.50478952017969 0 0 0
15464 0 19 0 79.27377217607949 55.48756432401637 30.479008276471 0 0 0
17439 0 19 0 82.16475788332238 50.858237626216486 33.314745189203926 0 0 0
17022 0 19 0 81.22804632005368 55.149218666451226 35.06140930864561 0 0 0
17030 0 19 0 86.46376367796347 53.06062674992953 32.19771549628771 0 0 0
625 501 19 0 67.16595118799248 33.323739619523806 38.22692683086711 0 0 0
1272 1148 19 0 68.2975757485148 30.698865099215038 42.23453175226533 0 0 0
585 461 19 0 70.28633348247456 29.34164298153568 37.57024006064786 0 0 0
10594 0 19 0 72.5636161484063 32.9264166957988 40.106228721665396 0 0 0
14527 0 19 0 76.53634872647142 34.66497668300749 37.711707739163025 0 0 0
584 460 19 0 77.89489310286028 33.05742828431164 42.48844590008601 0 0 0
934 810 19 0 76.50487089219797 29.025637403012098 39.44414519418631 0 0 0
15339 0 19 0 81.4506744020651 31.926226386299938 39.45162377131088 0 0 0
17664 0 19 0 87.0953599592136 29.42532585298799 39.53798646608196 0 0 0
909 785 19 0 70.00040603169207 36.89098264136294 40.06589493609105 0 0 0
2260 0 19 0 68.31292627861588 41.53404305179376 40.43565271291643 0 0 0
1623 1499 19 0 71.58631830773624 40.25828853308847 43.490617674498225 0 0 0
1619 1495 19 0 64.80437558692394 38.00531250363163 39.04508213121902 0 0 0
8881 0 19 0 74.5840534336306 36.56572650859762 42.459393179053 0 0 0
16483 0 19 0 79.60750661171912 37.44945857162313 43.24649275989118 0 0 0
14956 0 19 0 78.22504956447325 39.27643667335434 39.16614676451668 0 0 0
13523 0 19 0 73.2187912541915 40.44248539078367 38.54033972527318 0 0 0
14320 0 19 0 76.1361461374234 43.18229023483821 41.37169751201503 0 0 0
16367 0 19 0 82.99565636226917 36.95887236808933 39.56360399760886 0 0 0
17509 0 19 0 87.45538437411939 36.34405613354818 41.6913205873789 0 0 0
16053 0 19 0 87.68112915223006 37.3925816166755 36.416344966487145 0 0 0
17693 0 19 0 82.363398030119 41.5501905352777 41.33572630646318 0 0 0
17652 0 19 0 87.67356584153583 42.186940257686466 42.618882893900285 0 0 0
17765 0 19 0 91.67511913840694 42.796345910850874 37.5001535268185 0 0 0
5727 0 19 0 70.81845880617831 44.65082978789754 37.30912574667303 0 -1 0
4113 0 19 0 66.80810087684121 46.326098895225 40.53589596860952 0 0 0
13721 0 19 0 70.26367392773167 50.27596369918332 39.434759481959155 0 0 0
12894 0 19 0 71.69942661537475 45.334768460813144 41.78872027128798 0 0 0
16241 0 19 0 79.7244087319905 43.71811089969313 37.499727962231255 0 0 0
16231 0 19 0 75.45617888623245 48.05280390843462 39.303174212278336 0 0 0
14984 0 19 0 79.76773989080834 47.152012153819356 41.52156519321966 0 0 0
13076 0 19 0 73.72697215238227 50.417568123886916 43.311730759311125 0 0 0
15197 0 19 0 85.22608308657084 43.51532331525497 38.23795988007809 0 0 0
17441 0 19 0 82.72358839509899 48.247409737058824 38.16823187342384 0 0 0
17618 0 19 0 88.44286662575955 47.89499812833899 40.331534241383984 0 -1 0
1348 1224 19 0 65.52618224653216 56.1244662158604 36.34235635405742 0 -1 0
1339 1215 19 0 65.5401822646217 51.59617974237034 39.26679464634738 0 -1 0
1552 1428 19 0 69.23899841013427 53.19288158758572 43.35461416267162 0 0 0
16222 0 19 0 69.8909627765304 56.346412204947605 39.52058523758676 0 0 0
1632 1508 19 0 65.05987415126931 55.965595122758955 41.627045616423835 0 0 0
13145 0 19 0 79.19603950315553 51.547147721817645 37.6535457596609 0 0 0
13097 0 19 0 74.31437565616636 53.08702202378647 38.851673733658615 0 0 0
15977 0 19 0 77.9654647999401 56.970078596363365 39.63452379765156 0 0 0
13777 0 19 0 78.45178625991021 51.808257865116644 42.718980329953254 0 0 0
17471 0 19 0 85.91353361362842 51.58795387727616 42.4323786574654 0 0 0
14804 0 19 0 87.02532586461464 56.921417183494675 39.74617261311862 0 -1 0
16595 0 19 0 85.47074207220821 52.019451238979265 37.36267717294393 0 0 0
17315 0 19 0 82.26465902506912 54.839557333981695 40.63237766388561 0 0 0
16445 0 19 0 69.97925294253314 35.00314268240717 44.60470454650705 0 0 0
590 466 19 0 71.76167914571775 32.61765819840459 48.2097860010094 0 0 0
1386 1262 19 0 65.98628869452195 31.57871221673799 47.653171571287885 0 0 0
967 843 19 0 72.93016598060626 29.89765805269692 44.32091426660449 0 0 0
604 480 19 0 76.57708929278598 31.128320613384048 47.277623615137074 0 0 0
16853 0 19 0 76.870645040041 35.757589264483244 46.831340022820726 0 0 0
1295 1171 19 0 80.51158982356233 35.78971420033736 50.48513880941264 0 0 0
15699 0 19 0 82.89321455748035 33.763024789458555 43.76110292402656 0 0 0
1953 0 19 0 81.71770116888386 30.904922950990926 48.25241269550185 0 0 -1
12133 0 19 0 86.7715442037108 34.410613971042785 47.390525867180536 0 0 0
1408 1284 19 0 86.78993381512645 29.67699596872825 44.93629992846531 0 0 0
1306 1182 19 0 80.58228542738763 29.228697239465692 43.63601768666569 0 0 0
1310 1186 19 0 67.43695543547176 36.45408328063068 48.53822508508977 0 0 0
5980 0 19 0 65.57057292051648 39.01008119077943 44.53973835868606 0 0 0
1650 1526 20 1 69.32073371931843 39.5042217690312 46.75983900535685 0 0 0
1268 1144 19 0 65.28823372315011 41.49269350409296 49.035427435706794 0 0 0
1317 1193 19 0 72.50386264454572 37.566206634022045 48.108737622571525 0 0 0
1617 1493 19 0 72.66935276890575 43.048423672231955 48.06011040424088 0 0 0
1358 1234 19 0 75.9635737671146 40.31095102744234 45.239102004376086 0 0 0
15768 0 19 0 80.50073595105486 40.04532886959269 47.74959793164162 0 0 0
17510 0 19 0 84.69328352909189 38.92484085248507 45.348145091864076 0 0 0
1608 1484 19 0 84.89608189077978 42.722138010881956 48.05448958355979 0 0 0
16137 0 19 0 84.96141566429988 37.701149168209426 50.655438057061986 0 0 0
17619 0 19 0 90.60855542048301 37.722723869094885 46.9906697900087 0 0 0
17761 0 19 0 90.68110795864355 42.81510601665648 46.31833432424275 0 0 0
1595 1471 19 0 68.34772649710509 43.55979455157102 45.57667943882936 0 0 0
1394 1270 19 0 69.30994629732841 48.33288678360959 44.98398876104962 0 0 0
1331 1207 19 0 64.87721311453872 46.723090643273494 47.202603486536006 0 0 0
1582 1458 19 0 76.9484666909593 44.737649407622975 49.82774039613153 0 0 0
16818 0 19 0 75.39805686312563 46.17818576388003 45.49959138729172 0 0 0
1325 1201 19 0 72.69990533755693 47.86899287830927 48.840326010516634 0 -1 0
15676 0 19 0 77.83295536780332 49.371896510824584 48.5923464207837 0 0 0
11481 0 19 0 80.51621953870021 44.97380045841093 46.06160893434337 0 0 0
17692 0 19 0 84.25276632191428 46.52526493032224 43.69792729056348 0 0 0
15565 0 19 0 84.64315219737739 47.572916859594045 48.477311416288465 0 0 0
16564 0 19 0 88.60850463231867 47.92997661189024 45.35294449690262 0 0 0
16192 0 19 0 88.96026307155826 45.7441911273342 50.5614953191799 0 0 0
8453 0 19 0 66.15077582695649 55.32037359371535 46.57287783879887 0 0 0
14052 0 19 0 69.0692332313394 51.56343443337285 48.64288194687657 0 -1 0
12433 0 19 0 70.40566347419062 57.210472994019774 49.50040469075206 0 0 0
1620 1496 19 0 64.90092238624663 51.09909692182169 44.487406520842235 0 0 0
14662 0 19 0 73.47832825317106 55.27620694366956 43.887032339111094 0 0 0
13565 0 19 0 76.91709947613535 54.200456733328544 47.59422008923888 0 0 0
5689 0 19 0 73.48371170950352 52.042475257610086 50.569212257293216 0 0 0
16376 0 19 0 79.23595061225025 57.2473376135747 44.49510516098181 0 0 0
15296 0 19 0 86.59299287072383 52.65826881403384 48.80450698540758 0 -1 0
14816 0 19 0 81.62154000669089 51.47390390502498 46.40569864859107 0 0 0
16005 0 19 0 85.15820789176512 55.66462449613732 45.1358766176134 0 0 0
15152 0 19 0 82.18932709428722 56.493138863936274 48.88124062402748 0 -1 0
17758 0 19 0 87.3427496399929 57.52396050666872 49.80199385525464 0 0 0
17430 0 19 0 90.17202036027035 53.85603025805973 44.57244824624846 0 -1 0
1433 1309 19 0 66.01872578936269 29.97553206106535 55.88920197683981 0 0 0
1368 1244 19 0 70.77505905434747 30.009814132567914 53.172245194439135 0 0 0
656 532 19 0 66.73302336155876 33.22387471881762 52.228225420355884 0 0 -1
581 457 19 0 70.84391137298002 35.66897899138606 52.706751366643445 0 0 -1
508 384 19 0 68.70005846150579 34.02891800950232 56.954984348094804 0 0 -1
11758 0 19 0 76.36722724534167 30.00151717224236 52.953737259308724 0 0 -1
10357 0 19 0 75.78663194068079 34.78838753953574 51.79653042102616 0 0 0
11523 0 19 0 73.57928156805598 33.00033711053645 55.86016160190217 0 0 -1
1576 1452 19 0 79.49953341970652 33.22772887501218 54.77988633345062 0 0 0
14192 0 19 0 77.79634135431508 30.10592120616067 57.9246906468579 0 0 0
17157 0 19 0 83.7757161334078 32.49302046193603 57.233586750073 0 0 0
14663 0 19 0 84.39744737131191 32.861544465068704 52.50861179622146 0 0 0
16583 0 19 0 87.46031418815006 35.815975029910234 55.70051898807408 0 0 0
16471 0 19 0 87.538591791696 29.288789283435595 56.018203821690314 0 0 -1
15907 0 19 0 89.31528847805863 33.130059313416965 52.03874774865078 0 0 0
1283 1159 19 0 69.78923702053329 40.29789280581249 51.06742560917323 0 0 0
1560 1436 19 0 68.0868008104622 38.840966338433546 56.31161548035991 0 0 0
1571 1447 19 0 64.76962485691931 38.475252913618036 52.530211442795476 0 0 0
1616 1492 19 0 73.15053534305045 39.03992524132263 55.24467582330118 0 0 0
6070 0 19 0 76.64727417611095 39.83398591053713 51.07573059304002 0 0 0
1007 883 19 0 77.62114949196834 37.63451377462421 55.48866019387506 0 0 -1
17379 0 19 0 85.79489672228908 40.87641821501091 57.3176110333994 0 0 0
16549 0 19 0 80.9893629247469 41.530513751657125 52.56537235543753 0 0 -1
15619 0 19 0 82.46185405449488 37.17090650932666 55.14226576143671 0 0 0
15372 0 19 0 85.69432907027428 42.98144241428244 52.96177736417577 0 0 0
14812 0 19 0 89.73752206930061 39.32421765081806 53.087268516436616 0 0 0
1618 1494 19 0 68.00559276294271 45.58401585443101 50.86721562698373 0 0 0
1627 1503 19 0 68.9826834583524 43.664605670458656 55.309570845130466 0 0 0
14218 0 19 0 65.08483201148555 49.928527639210486 51.560211474560134 0 0 0
1558 1434 19 0 66.39498866551597 48.024423610267995 56.01075661683938 0 0 0
1611 1487 19 0 70.89667155366814 48.662385753322866 53.38182639560427 0 0 0
10621 0 19 0 77.19266339767368 43.65991498658221 55.95077098446922 0 0 -1
13719 0 19 0 72.97704853658448 43.834058331522584 52.935194384170934 0 0 0
15109 0 19 0 72.88772629554175 45.71849520591418 57.30681372037148 0 0 -1
15686 0 19 0 75.88714590276682 48.422300098604204 53.305135575818824 0 0 -1
14864 0 19 0 79.7935568861166 49.58499834921273 55.96752840204447 0 0 0
16501 0 19 0 81.1022606472754 46.7760645444462 51.53034077405427 0 0 0
16572 0 19 0 81.56702222683899 44.96914140263117 56.79018065278109 0 0 0
17459 0 19 0 87.59601894146138 45.29221611983054 57.55303880096632 0 0 0
15794 0 19 0 85.44568799697699 48.95800709707059 53.839851370802215 0 0 0
949 825 19 0 65.11545995939635 57.893026163080435 55.81217008035083 0 0 -1
998 874 19 0 66.0151337290622 55.19837741644014 51.46852274367567 0 0 -1
1574 1450 19 0 70.10083980871069 53.71373872256493 54.01349667415526 0 0 0
1601 1477 19 0 65.55216609073234 52.92765520253262 55.96278138062997 0 0 0
17080 0 19 0 77.44675489145082 57.67242566067878 50.771489111300376 0 0 0
16083 0 19 0 74.14693948214608 51.039346874054274 56.449679379731506 0 -1 -1
16188 0 19 0 78.16056145697586 54.27127259677963 57.58236504318861 0 0 0
637 513 19 0 74.20985403409126 55.96827535413047 54.37783648145371 0 -1 -1
17105 0 19 0 77.78571145177126 53.224300223637485 52.492499307285144 0 0 0
16225 0 19 0 82.19203350253285 51.74674909374206 51.376487684604434 0 0 0
16704 0 19 0 81.3873558820408 56.23577518753164 54.102832868838725 0 0 0
14900 0 19 0 86.81681257919836 54.27754633664651 53.498000250755915 0 0 -1
17169 0 19 0 83.61967429970484 53.92829284945713 57.983734779867376 0 0 -1
17628 0 19 0 91.77865859389044 57.701406517814256 54.75749827890162 0 0 0

Velocities

15191 -0.09846215389918926 0.14940203479583467 0.06901977944230872
17743 0.004374011875211861 0.003931012776201401 -0.018957591638613876
17106 -0.07520901472136007 -0.007794104214485516 0.05767496932939082
17268 0.05211005262447271 0.02845309843015705 -0.0026326493227939035
17492 -0.20141690499212067 0.03333929014745944 -0.007598248323165617
16391 -0.051557349058717984 0.03417396916335359 0.18185914852864687
13286 -0.028914781359799677 0.213738242790287 0.01237494584296258
16835 -0.014062181896926214 -0.020290569050235404 0.0678528413059146
16427 0.0036938047809061472 -0.0703562036798553 0.023778690491092002
12679 -0.09673072797508564 0.05490889822510868 -0.008717420392021898
280 -0.010318851334091555 0.04687144644359388 0.010906225510669887
177 -0.018027499920781016 -0.06455894626064775 -0.1322592357703879
17552 0.032444476849068815 0.032741261032838496 0.03096791333054819
17715 0.0059791576790346026 -0.010246279083818643 0.08957865254353167
17731 0.013316258236624298 -0.03684257527224635 -0.05758183546139074
16987 -0.1875103123659345 -0.0872700573781696 -0.022145838318000738
214 0.03309904959501453 -0.12133065671776372 -0.03304224936709358
17666 0.04814967580822218 -0.10191367050378872 -0.08479281308866127
17176 -0.0815101214434225 0.12148035983779915 0.04376015970569331
16926 0.043669732147239765 0.012883596944942167 0.12084935884507525
17304 0.14292161425362068 -0.03716971607323683 0.1285458589017276
17000 -0.03981441459158291 0.17035368141777815 -0.18189463895143038
16161 -0.04498213173383787 -0.03289284299010696 0.04907144380634849
16123 0.1323329206288772 -0.007321224594543131 -0.09468170673645936
15582 0.04521420514185104 0.02773246856621663 0.061979452893637016
1151 -0.0038742703006897136 0.03489217466390378 0.013124008713505723
17644 -0.05044761023818905 -0.06275847257891394 -0.007894973282549693
17335 -0.14419545745560214 0.10485912907448763 -0.0014046819114302556
17187 -0.0819041938631094 -0.0019723069296390706 0.09833243921841091
361 0.15046690549938038 -0.01315872963012691 -0.0030690669453001234
11072 -0.07186238242356352 -0.015678507788631824 -0.09861029485413661
15292 0.0019800692710368016 0.017618522475226203 0.026031107447656313
16210 0.047795720176819614 -0.012944744850562129 -0.09934810093649925
15444 -0.17525469133970242 0.10051261135782613 0.04018814336594461
14917 0.012245635285394268 0.020839154208746487 0.04069185681839642
14044 -0.11154014322437356 -0.08029806516199832 -0.010120510347282351
1221 0.06985163773571317 -0.00030696561924645573 -0.0011906218677431753
10450 0.04071681405716202 0.16507173363349978 -0.008779492753254056
16656 0.0832229684384715 -0.030753768301434108 0.08872707208042656
16305 -0.008585975383533912 0.127884711804297 -0.04008985594631001
16255 -0.042955639678008924 -0.04621864832883442 0.0793431328511487
17277 0.13094864911518436 0.025592391667184945 0.1462412399673071
1639 -0.17463704349104403 0.12889708291825427 0.06248684502183494
185 0.09318456785138808 -0.024739997651011404 0.15178263842023754
15455 -0.039688881845062716 0.07583434927361782 0.05270461916831743
1488 0.038187721578945455 -0.11609905826401062 0.1915404814584216
248 -0.021867418930878978 0.051604022653007085 0.15609899012821452
11459 -0.09310234386859448 0.0010593097121417636 -0.10760660129224754
343 -0.0922607536527094 0.1010002864949181 -0.003282306601606574
135 -0.06577112451146153 -0.032043637137622455 -0.030007797750604533
17416 0.0712178662585285 0.1037445994356141 -0.12448783588765223
17604 0.03236272793628244 0.08636586624488272 -0.14403393621790977
13971 -0.07565911892361536 -0.011169526383422309 0.012273592466330425
17737 -0.05690324788703771 -0.03171590677221775 -0.0033661383656546106
16887 -0.10037024604027206 0.14222131743088587 -0.20660198167260693
15226 -0.03157933664607104 0.09642525082083737 -0.07816792118420682
12650 0.09062035421864766 -0.1367801257287734 -0.02387929724349324
13942 0.047603285459529854 0.15565161903646996 0.09218175314416716
15402 0.063107155287948 0.04077370264606266 0.003587160529561959
16498 -0.04535301199851205 -0.08472137387636866 0.01643192610523177
16881 0.027090394532887627 -0.09398845049924154 0.0982088002801364
15642 -0.047923003811135664 0.041469448521008395 0.08533837162589987
17209 0.05690510851656743 -0.013919838609308881 0.008912015768317273
14058 -0.09427242137961779 0.18214471953939051 -0.16478399174197406
16775 -0.031088351098726846 0.07672445846917038 -0.003310862856374495
16341 -0.03851806084712339 0.11161338843323726 0.1109752116716705
13184 0.04985639197046803 0.09359170211023693 -0.13023793516586826
17710 0.08980045617361405 0.02061496899982107 -0.03411946705669728
17542 0.023431787793168783 0.025967414566912 -0.15718389340248445
17607 -0.13798590714162948 0.02401097674849801 -0.10675783642284303
17566 0.09800076469322083 -0.009968494653598906 0.002224598946694835
17721 0.03387252996721333 0.10510773596593785 -0.0008002303146690988
17632 -0.05887925893053474 -0.2036051572341734 -0.01449680974822554
15061 0.17582212017227422 -0.017750442882847495 -0.06533387334124384
15914 0.0577390629126977 -0.02472228949585315 0.03176029434143581
17168 -0.00964823507419162 0.07663587861068967 -0.014583047280915171
17020 -0.03353551046118854 -0.010601865017838257 0.06930344350664518
17720 -0.0659365861781992 0.08904974853712788 -0.0307248445228926
17738 -0.00872621708371635 -0.02951861953448901 0.08090952389854543
17751 -0.017659495702064907 -0.06567654988742821 0.05367161017202277
16925 0.18523460720375798 -0.054807704139254516 0.02740214247525661
16327 0.06978714932164945 -0.03468526203937862 -0.1882802153127785
17336 -0.0656729095326438 -0.01736988487314123 -0.10997419213665968
1056 -0.04566680658170199 0.018042026912644563 0.015757924842994903
16995 0.15921733784308698 0.057260275320028066 -0.03311757175124154
17485 0.013468213800107228 -0.01658832108297393 0.0445495190793747
13461 0.046823139767402475 0.00729027167783133 0.047918798816396664
352 0.038889537026326235 -0.03410253831546162 -0.11512475868418133
11585 -0.09411181066520889 0.04625673915219983 -0.0431196413925063
136 -0.011909638131660821 0.0847551219643497 0.08392671593206791
5254 -0.08620805604447451 0.05767932183356607 -0.006948862693276494
17223 -0.005909662281053869 0.03914282825289273 -0.029749928807102245
14103 -0.009969256772544243 0.0645901510538539 -0.07168801588636836
16983 0.06815892115990793 0.01548272719099971 -0.04059763893615141
17586 -0.09592184910795086 -0.03400957925462004 -0.0635928238626309
13804 -0.08152522512198246 0.21672824705310884 0.037893111981054356
16814 -0.011620883411855236 0.0063521133293062155 -0.1335921696508773
16730 0.04806100838644091 -0.041805570326477796 0.1453522465822673
13988 -0.19697878877483965 0.09507854884440682 0.005598505803290736
15999 0.14734027982646916 -0.15826952205378664 0.11704275105480524
150 -0.12269322374627703 0.02616953493321362 -0.018977096693483592
227 0.08906922744402893 -0.05464665333897897 0.07373195916361938
157 0.026112586814708225 -0.0474091887455672 0.06325063379247926
467 -0.02283855244931326 -0.03399755516258992 -0.1288950920103083
171 0.08737998567835732 0.17770652562102718 -0.10472859469682476
16568 0.13071472210142746 -0.12046227434001423 -0.050189468639563396
17504 -0.012899196046046536 -0.002994857724842567 0.08238751528163124
16286 0.002976492130101184 0.08196169082609513 -0.22561556268903155
16248 0.007570048392528464 -0.01158652681668585 0.15415400023552517
16786 -0.006578070926027697 0.009755561613758526 -0.13870587935593368
14288 0.04757129878846347 -0.13714622875570293 0.05546701194789523
15311 -0.1667903027742691 -0.042497581226996844 0.1451803731305062
14862 0.0015402224917067872 0.04852836227038915 -0.26243091547735276
11921 0.09318471639510406 0.010115736186496251 -0.15957886022473758
806 -0.0640899634790087 0.038098048192419354 0.0822730548766935
359 0.05114497478240033 -0.11280020852106638 -0.13890790745435913
836 0.13084255606050013 0.05105541392488158 -0.15910113732106407
17145 0.03510809905785492 0.1197797187320716 0.046001066361467294
17688 0.013585864691542614 -0.1624502569980368 -0.2782001365192421
17694 0.1279135605845823 -0.18600407484927572 -0.18614171134206745
15869 0.0708683948154672 -0.026635825327552865 -0.047875182515782384
17674 0.006010780445459059 0.029422058142062394 0.027707349487971624
17063 0.04835951311970083 0.07512071871820258 -0.07016332989220189
16637 0.077044490123404 0.04444941922192518 -0.04467014430804955
15711 0.08972487926604723 0.15807776325737 -0.05217853384042256
14253 0.10752352145245239 -0.07948477251562443 -0.07606181676325421
5025 -0.06668974009299931 -0.06997013331314678 0.08010727802620414
11099 0.0667213921103046 0.06938702651179883 0.05034291911942828
14981 -0.3283667418059699 -0.01517178425077638 -0.03395298605638372
16448 -0.04835513802191049 -0.04059148355360798 0.10781388858253786
12072 -0.011233260312370822 0.06754010910676479 -0.07177901055250355
264 0.0350013360754349 -0.12447428645090508 0.2936193112683698
16433 -0.03487670705617553 0.09771946206199245 0.016773406496688306
14729 -0.06352242705104494 0.09908842786977613 -0.0009300775416421787
17750 0.06779837753236219 0.049034521252591716 -0.05009004736572311
17201 0.06880944304598831 -0.042351060764494415 0.07697437894717271
14791 0.06199801300984575 -0.002846950277828525 0.0289052518403021
16864 0.003981528143633903 -0.1494476988019503 -0.04056276367334545
14998 0.13468163941630956 0.10305499136648674 -0.22803447679027777
16915 -0.008007288428289346 0.0020933933788596266 -0.14626921606654916
11466 -0.033252046246101036 -0.04029528952213143 -0.26131164045170924
13240 -0.0666267246909458 -0.19044762316180872 -0.04928414898265757
10538 0.06053854190112468 0.10216147415294108 0.14571146700519128
14470 0.045254401638463386 -0.02825597673657536 0.07750151122141254
16366 0.09304680761473746 -0.052781914997047395 -0.15248529009612038
11431 0.009240331382535365 -0.0003757289532870904 -0.07337875565701787
10964 0.07138037741302268 -0.09527210615815912 -0.03735766207788573
16521 -0.09760341150508861 0.11941669360269523 -0.040533662973642096
16993 -0.06471240866988681 -0.10558639397090422 -0.16248175947856044
16844 0.0300445445407658 0.026307251621762045 -0.022353604270676702
17726 0.01240926220200487 -0.03603491773617008 -0.024496502659871938
16239 0.01663787661799335 0.04530311159505097 -0.007250669380548313
461 -0.079960569172511 0.16997083530184048 -0.004683958339939495
16602 -0.06958897799536033 0.07976261701351209 0.017247950967165988
400 -0.08697952500903008 -0.07941804583025341 -0.12402227854371078
191 -0.09256723960331341 -0.20958511213524464 0.07032694331670872
15591 -0.09456194779104116 0.027596579408437592 0.08965475615540744
363 -0.015187286246869026 0.049395102995093074 0.06784319354417144
17609 0.01706894705032632 0.06993401391879253 -0.09716921440501786
16454 0.08936431509344346 0.16092305760501407 -0.13681038305421206
17717 0.09699761331494183 0.051672026158167295 0.027377687330990257
16105 0.11310047860703655 -0.03311803099868958 0.12811593413032552
17042 0.04464590539475581 -0.039982328604424744 0.08542383524856229
14234 0.04538990321499116 0.03452353982715734 -0.0004890003405021194
16502 0.032106425222839685 0.018782881229422767 -0.050229116406729446
13783 -0.12030415772451916 0.020077365158177853 -0.09773776614825948
790 0.02526638123751494 0.19952405824158337 0.06338732511284248
330 -0.10297973033603534 -0.06652242485076475 0.024320338330963427
722 -0.06638969267149832 0.09184452012933263 -0.19181636735138777
17487 0.18891927463302027 0.07157576017249054 0.18284765024100222
17567 -0.08338214451268179 -0.018195796786294863 -0.0674385406998915
17606 -0.08080669093239146 0.06831558674854361 -0.2534099844585314
16546 -0.0905944632700397 -0.11546456267715514 0.057405540734354846
17247 -0.0216062210792761 0.1617042781141238 -0.13916302366366826
17744 0.03564426879181412 -0.050301700157607265 0.12603880790143218
15318 0.12418033119035343 -0.05390795802360695 -0.043069142867971956
16246 0.019754118176427353 -0.08638660717856933 -0.05208052924225026
17400 -0.023132081186869807 0.09856033150060317 0.05103436303735659
14510 -0.05803379831461622 0.12688421674281816 0.02159568812987435
11052 0.012202434482786063 -0.09282555227214614 -0.07042380113080401
14024 0.14186232072410712 0.06588229407900147 0.17864663680295353
1130 0.01744779126453766 0.04405294063170462 -0.02546927976627435
10098 0.07853941990926151 -0.07017532903342336 -0.011054828928685175
17672 -0.01702923875508301 0.04256891581661497 -0.21910933699259103
15682 -0.024563189016180487 -0.03447222031374831 0.003654280764655503
16217 -0.03412181448938216 -0.11338587936858383 0.0893162348640027
16991 -0.05815010883988784 -0.07082329245655333 -0.15723998516513032
17356 -0.017619783589830153 -0.08958609875615628 0.033499229658176775
16389 -0.012215358329862583 0.05042695473027381 -0.08401860509747626
16599 -0.13923763628825592 0.0037823290883419562 0.07953544528049356
353 0.24388035429687144 -0.044724682780212265 -0.007509439753390018
160 -0.025174329100350938 0.12602841573998616 0.02531904138875852
13625 0.058330856817101644 0.04023060711507244 -0.056633408089322546
439 -0.08523176024359244 0.11888288698392332 0.0995765314917072
17563 -0.12062634639414344 -0.018404001902606243 0.2103078348552403
17394 -0.021840715783205445 0.023751231197225466 -0.06473105627079401
13912 0.0018378467482825407 0.031599803256014414 0.08600338122291154
15528 -0.06716949142585049 -0.024375962682372673 -0.015756717287051504
16479 -0.021155358444424337 0.0909472555228924 0.07073278237142194
15254 -0.01896302413604119 0.04317578951210329 -0.069613655738031
14931 0.11451162430377577 0.07742544676150011 -0.06509996711237356
403 -0.08709502198934689 -0.16334993369680784 0.026534694373775463
12293 -0.04679596795606712 -0.12879595923654735 0.025409411495411094
14612 -0.14527646683574852 -0.11842995239129776 -0.04089925144548109
304 -0.16636315237108804 -0.04711006794789003 0.1093834820454715
144 0.09718911949319077 0.07063419545355926 -0.05798267613910543
17712 0.1619531009340751 -0.0626919685804115 -0.005849353105116084
15615 -0.06613543723400987 0.01735201550833461 -0.011378078490244446
17590 0.09386420741597765 0.043592646843400966 0.05490067115270102
17286 -0.04137487626530827 -0.046257887128010336 0.011368420698505188
17742 -0.06296092546231581 0.03198442894213426 0.011952407095532398
9863 -0.10985767054911744 0.02679636890895505 -0.10185174766888808
1812 -0.04945686602206394 -0.15456572713975217 -0.1655079747889419
14520 0.13560570483267295 -0.09425226085717192 -0.17266437961364692
15200 0.013162177817438774 0.051549760974571285 -0.11660172426211507
12838 -0.027018571647493755 -0.034786044136134085 0.006781648935003399
12004 0.09853914758501119 0.09974721547966925 -0.11567199673989924
860 -0.04888688809175229 0.10967582602223344 -0.0368194422308674
14925 -0.10727464245381407 0.0551599422806721 0.1613375159021948
17697 -0.15446237341172905 0.075620561668091 -0.06697723280148847
17660 -0.07456863480584952 -0.10619912920248027 -0.033945167308948004
14028 -0.05125665973191515 0.02289664879909635 -0.09893098604610921
9774 -0.09191629889459568 0.03665711119942078 -0.052414356476365664
15735 -0.08018742971893816 -0.19241622917517923 0.07631635486241617
263 0.07167298320629734 0.01806474240316906 0.015632772958118785
17261 0.09417908394070831 0.14227238699253134 0.07238107748217036
1492 -0.04793621480776743 -0.03853879760032056 -0.13709511392109355
199 -0.0012504936372962974 -0.005679076819334623 0.08334757945845028
1132 0.029713772559600428 -0.06245814888618907 0.21447024658734637
10258 0.0021348419712083587 -0.12003551453487048 -0.06253089978964929
17745 0.127515709537843 -0.04982120143030023 0.01871686937658131
17412 0.05742457030039726 0.08293404038543697 0.1176069312444005
17682 -0.06836032108263655 0.15237185566567227 0.06680480305003306
16378 0.01809594981258774 -0.10739930532210692 0.020502095546376657
16229 0.03834847886369055 0.112285949254753 -0.12323133223558401
17580 -0.0036900499127909903 0.14516038554805433 0.023901266359147764
16245 0.04584209465653693 0.018983921375914727 -0.1662008584587165
10713 -0.10658544748705778 0.07278172014695257 -0.05280305833994189
13356 0.1726896393521747 -0.15886356705561125 0.03457227407037404
8641 -0.06437865444384532 0.143691957225869 -0.047690421876803
17146 0.06702776089397784 0.12150658472296069 -0.07694194851819165
1248 0.009062527805794246 -0.08746724832985497 0.18602974180774168
453 -0.13260389351881025 -0.14310052366182946 0.01726301004718781
1077 0.17854970589185742 0.005448250562496491 0.05370014965247946
1226 -0.14291432411424104 0.16207989632003933 -0.0920070266718157
17588 0.07368920995530599 0.02262908400882629 0.027933527431339616
16615 0.09054478061148855 0.05509013802976452 -0.043387412449961534
15374 -0.07834849625325846 0.06754658064965802 0.03243012390998658
300 0.014234847474857343 0.12121611958266651 0.007821729309775514
392 0.02629021949282355 -0.15752194361406188 0.04571546149579547
303 -0.0478843092788088 0.040738618030178766 -0.054196708812611
13279 0.08672218786293298 -0.11817219514852426 0.0948376695793122
1205 -0.05340278994493293 0.24768763917775996 0.18399852741156159
1225 -0.06261118592921605 0.06896019425317419 -0.05474852554306239
159 -0.06528798083191141 -0.04359396263184231 0.11378116844111254
394 -0.011120926957235143 -0.006732584923335869 -0.1198000030567824
17486 0.08687588033970262 0.05539226679135908 0.10700854822003987
16457 0.04149790762419014 0.22239254781601384 -0.08449837536746455
17446 -0.1065372712574318 -0.10804599102360214 -0.08671787779916176
15943 0.00852830529182761 -0.012421680906652237 0.03786026326033233
14555 -0.11048080704388831 -0.06891296016696415 -0.010950859616073854
17740 -0.00017898199473528192 0.0573778174347253 0.16707592868756296
1538 0.04869322812584517 -0.042448122572384984 -0.031155784521022068
1247 -0.017546393719544955 -0.21562333586826823 -0.054119520185704
9278 -0.04021432726945731 -0.030246720959519656 0.03828765455363937
1503 0.06357355554913613 -0.1880427127158354 0.0716726016907231
17550 0.07770608955944444 0.11284512992657292 -0.18775077153519454
15569 -0.14597130933525937 -0.01331603028830043 -0.19564014458463716
14213 0.061205820021899233 -0.01488395402458565 0.009589004821588464
17317 0.010358678252834805 -0.051353909411508275 -0.05763342705973625
16843 -0.11090591451006239 -0.09000092157906614 0.009943180952890745
1078 -0.07516280238847742 0.08554830175381542 0.047061874631072344
17122 -0.007044738185833812 0.007818141019855531 -0.11130711397450697
1184 0.15904470390220965 -0.02465679982984283 0.08965012259341948
17236 0.18392177495143044 0.07485697529989063 -0.0221098817659256
1641 -0.037395286443576974 0.12310374041544633 0.0016415945498541237
14803 0.06292544963583854 -0.009809170271343745 0.049906421182813465
147 -0.003067037918642223 0.026086247957328404 -0.035068527993231735
1088 -0.041299510932081174 0.025407524867915917 0.21728852164055665
1094 -0.04613624364892576 0.10852676467594861 -0.02766736158280534
210 -0.01293765620202407 0.11200336444024134 0.17088008807542038
16397 -0.05456974030292435 -0.09120620689778006 -0.042190368988714894
17457 -0.055569349059485046 0.060988045585425046 -0.06109462924046547
14660 -0.00025254675447432436 0.1648582666920458 0.01686383665152627
1267 -0.016663763842398687 0.16353118527817048 -0.06652739360335792
13744 0.025439577395499072 -0.09533329355952687 -0.10786000185574622
16992 -0.09614280342454079 0.011528760730755877 -0.04879679225918108
14122 -0.08562372826304261 -0.062229320333434944 0.06669658152403925
13119 -0.0821976488649715 -0.09833424979658223 -0.08214686535826224
1157 0.002867680190261631 0.0707983419220328 -0.16131801214575303
1147 -0.2168089660033218 0.0014196254773612901 0.11035690058914308
17298 0.015999783470753034 0.02490452640105588 0.1039508568954268
15993 0.2139637723604236 0.03327847271208203 0.03082874188876848
17716 -0.10331451372831654 -0.09443178470882273 -0.06877488921429231
13167 -0.00795926125815884 0.06156667393857682 0.1494818311649933
154 -0.04361258580586559 -0.09213094091321967 -0.041438488238724244
17351 0.07330833160937292 0.04079706323743045 0.28080504992998573
15624 0.07466063721380574 -0.16621312411284198 0.21420084897632902
17294 0.024486857303489807 0.04815324295778829 -0.22807961017721068
1254 0.03273027566973412 0.11423993098077749 -0.006270899416803936
1260 0.014604272217008149 0.005665086639231612 -0.05378405117269317
1227 0.0912658045302798 0.06058626743222937 0.01527436696877805
17143 0.11116487664276792 0.009434352104546283 -0.15188612186317235
14092 -0.08135703509550529 0.1272537215776667 0.0473943355724027
17410 0.054923723312945066 -0.008930023404868636 0.012414354850472492
17403 0.048153919644103524 -0.09005132050508327 -0.03833528453366088
14740 -0.044905927749778515 0.0571783128148726 0.15577223805449947
16372 0.06584072200513486 -0.07743291981832877 0.01172939988542528
15170 0.24021056364302226 -0.049546125449532116 -0.07997730183098184
1240 -0.05795151858148739 -0.1323589899299221 -0.08316913854249479
1161 -0.01800112423406578 -0.007463920770794338 -0.03576790255478637
15274 -0.002751114660203443 -0.09985368220769553 -0.08380612707624496
15095 0.013954684857078441 0.1796615292413646 0.0627556214581396
16387 -0.16026135896600213 0.019628907489075705 -0.10173327754284116
17642 0.2203984267872201 0.07305297286648704 -0.05551138102401446
17530 0.06311314652017641 0.05393278303359069 -0.045985739880546155
17678 -0.15474197086717228 -0.06321965019850548 0.005909073335580696
5677 0.13133637652082905 0.09828764152197327 0.06301774891680274
16645 -0.029749800398412955 0.022442212560775596 0.037660454922643416
17555 -0.17380679922858677 -0.15085907297960297 0.04523826209013125
15149 0.03575320846644116 0.10033209632120628 -0.07984988020178196
1709 -0.025248479990251052 -0.04922508717224338 0.07434410240463733
16879 -0.09765433797920073 0.12216806335654419 -0.0974504538621053
1159 0.10273378743834771 0.002018861507946529 0.04935680857181271
16259 -0.08633794263578055 0.13175826801755908 -0.04009906306974478
16580 -0.03975312460658159 -0.14106907078429076 -0.08025845636440446
17739 -0.023593065991723623 -0.17925616065420708 -0.011528478785574689
17360 0.044023096110519494 -0.05742015976221614 -0.07087092618464934
1097 0.1309447030206502 0.026916572714360383 0.14731803666667098
16898 -0.04790523023981291 0.0005704040226657998 -0.03227357790727575
17518 -0.04309372128725583 0.0665728793729319 0.14511934542718702
1210 -0.0951780295774903 0.027615147016995134 -0.052293675317660354
1137 -0.039352803109263 -0.13517744242938967 0.10485409437361468
1090 0.040333037232410766 0.040140688703321756 -0.14722036193671756
1200 -0.002973824225629881 -0.060518129156726226 0.12341937327918555
17287 0.1359371240014357 -0.019334685035510245 -0.203144262902656
16828 -0.02974326580165715 0.058853759932760596 0.11703000772856714
17752 -0.12470017355763785 -0.02084758672369598 0.008953132963544152
16917 -0.014374523405601802 -0.12511217850791803 0.044636503933283965
17559 -0.08864237232138353 0.04485176960361065 -0.03808331589907008
17339 0.13427494076347074 -0.1230043767959268 -0.03488213451212882
16533 -0.03284562097942886 -0.00137884411221347 -0.1899787829789783
15955 -0.019260066417001134 -0.06379136037176275 0.13502100337327874
15188 -0.018549905169047885 -0.046927738104043236 0.04443990020464699
12220 -0.05196805353617632 0.0677567282265008 -0.03202962901763889
1233 0.14381783333085563 -0.07990445523771231 0.17213699353647494
1052 0.0529355100397249 -0.03668635514122153 0.0035991472073947477
15428 0.056023418471852174 -0.16454697346363736 0.04968077755602057
17689 -0.013381450591575854 -0.0052463090793895065 0.19429929355772269
17719 -0.034392105604349105 0.00277532116688754 -0.03523433748947637
17634 0.013809905333284377 -0.09608237082879137 -0.04147815626433239
17479 0.09741546966353049 -0.05010474012652412 0.015574761897566961
17638 0.15795239695733276 -0.0439499133972326 0.036188359685593724
17483 -0.02609945815798813 -0.20945143313556444 -0.03442054562197924
15476 0.07538039615262122 -0.09845147913807305 0.0814665973108727
11871 -0.0029655808841288454 -0.06218362213476496 0.1591839864397423
15401 -0.2289726496138622 0.1119898968190344 -0.05996837428170479
15360 0.09283242476419439 -0.08230406282604047 -0.03305719797179058
16030 -0.07213803669549541 -0.12305228082239808 -0.004912237159769087
1207 -0.05404695675847417 0.04529027735023967 0.12201896219091492
7768 0.16072921204572724 0.016797870563424563 -0.150213046514364
17615 0.12380633007600816 0.06675672706123338 0.0770340266441993
16938 0.059316153719441565 0.07182646824245573 -0.009609544349150779
17709 -0.06329781457134925 -0.05991825031736679 0.05878490205199533
17073 -0.04832623743467207 -0.007634370609595769 0.08677980823812659
17156 -0.019934313909899443 0.016382855966831388 -0.06596780629355958
17128 -0.09543569090493412 0.1486148532730944 -0.0014838221072836291
17099 -0.04604786884561314 -0.07523059912292124 0.14828403465441478
16541 0.014763056556900396 0.05591087931433085 0.19607762201425216
380 0.09405759909561554 -0.05162752439641073 -0.15132585162343337
14445 -0.0010056331859910686 -0.06701517509422769 0.11183203214857346
17005 -0.028932896665622865 0.029039640448647208 0.0868976664816899
8316 -0.030065806151843445 0.04913373995577086 -0.030030297048240562
17681 0.05783295428169556 -0.08987344415631335 -0.07573098487157987
17090 0.0017694021283062196 -0.03853850771132728 -0.0725455180959088
17352 0.12130090236786345 0.028296263934031656 -0.06440209976317077
17685 -0.06335381985974745 -0.07402049298964952 0.08274014069853633
17602 0.06567102939863007 0.103944697518302 -0.09400828014353649
15181 0.02957191701364542 -0.04438490707278493 -0.04922026346791594
17259 -0.060543794981896965 -0.18319016652213088 -0.039850317119964826
15679 0.06231282604824422 0.10438054314461453 0.09391352365016918
1042 0.031992568107977654 0.02396232018007194 0.024846169997211225
1183 0.008480805648133156 0.05936980336067585 -0.03346620419703649
17517 -0.02006254380727722 -0.15589541853291158 -0.004185929833167474
12268 -0.014069074314638302 0.04184772824246131 -0.029682567056948023
15576 0.02612175372483897 -0.013674089131570921 -0.050654833405368076
17556 0.048963599042392864 -0.049882962938170065 0.011953752227321687
424 -0.03760118348733027 -0.011338297851620955 0.06690224731757485
14766 0.11630933988169968 0.16649859011668938 0.1148124259285424
16148 -0.16749648060183275 0.004413765797848312 -0.03347832615527435
17701 0.06193636573356938 0.04567544696888942 0.025054060467854494
17548 0.017387138422554245 0.016758858475364707 0.07260448956065109
17144 0.15954122803689777 -0.020892427683675968 -0.13778300521890507
13729 0.1081074327159082 0.05786813100423729 0.06787930729849173
1885 -0.03315981676268738 0.04446709923112652 0.24635324222664892
1075 0.020687198407563397 0.0671586120821282 0.04025611085541108
17553 0.0632349966373364 0.16707901787232451 -0.02155203926114344
16360 -0.19913706674739415 0.14259774236716616 -0.15653081258403445
17428 0.27693129777237463 0.037183958810596524 -0.007967808736114919
17418 -0.11493414150445184 0.02309234370468946 0.07660768017007719
12118 -0.004392236662143687 -0.08847456858741008 0.11291110269060654
11411 -0.11386905440158153 -0.023495288565323208 0.16607550449749042
16219 -0.14018085412716624 0.007735693055523036 0.02336057525737976
6196 0.013843183333408077 0.04389004398475517 0.09964080146317482
1652 -0.10861389462008644 -0.018986919828821232 0.1464699065042555
266 -0.06273812179686106 0.056011538255027415 -0.028212493260260884
16937 0.1435020177881855 0.022119701439365397 -0.019748067857951003
16547 0.018464341653115057 -0.008938599676300178 -0.055479093995583914
14828 0.06472705805174889 0.05091874826524108 -0.04551812497989715
17515 0.048942696945302115 0.06225335607341222 -0.13050064046462068
13346 0.06483668163652911 0.049254484603573526 0.016207250761918313
17118 -0.06858249439386901 -0.050805265074425704 0.00976368331043195
10932 0.005999163859777064 -0.07710036454078877 -0.03490752147581302
17421 -0.28205620582392105 -0.07971337339366034 0.06407175405871936
13362 0.014073046536198904 0.03779004329364756 0.15683848109717416
17199 0.03752025500096929 0.021440862001194324 -0.007598692982586818
14267 0.04585059779956267 0.03913851090314433 -0.01863921206520119
16539 0.10849718039232363 0.028245152095069538 -0.07749180000673615
798 0.02071369664967909 0.07602211648816151 0.053283055053770775
12207 -0.05592399644326401 -0.07696012253604555 -0.08508355409302798
14629 -0.02434183458312071 0.05022775304501953 0.022672435287338415
17723 0.11515618638131453 0.005490542535262275 0.07009602947707042
15007 0.013747926345929435 -0.13575669908888666 0.03418198296536347
17622 -0.04758839261364169 -0.1853510277698433 0.06451588036288039
15205 -0.05151703540340042 0.0016146745584023374 -0.00808576114432851
17388 0.022653848936749023 -0.1305915832515606 0.05378484030635048
16178 0.17417070793413156 -0.10353433078262883 -0.07134456600517362
9881 -0.021311558626458855 0.011170393877946473 -0.05517559686540957
1412 -0.06249305761910589 0.014402900754410222 -0.08719022235982997
16086 -0.02285835664565546 0.020660174982526966 -0.047655882654522946
787 0.09944032299582964 -0.06301896465472857 0.006836008320002744
14913 0.1370130190515054 0.21541596033315075 -0.0013910113667704067
16790 -0.015334439310172702 -0.056334970950839725 0.05295023879578459
17755 0.02468517330908921 0.08710472331397881 -0.10763471009338281
11063 -0.1633513638891898 0.13027254331422874 0.06781343797381882
17573 0.012242095841057336 0.016277999817881177 -0.037596830535125865
15639 0.054718545381490055 -0.1289340667349118 0.08738411724817169
15964 -0.053689507242346036 -0.027439487053641638 -0.019242397613170432
17436 0.11955771930089626 0.0993861955275595 0.10598921811914269
5567 0.04390957648616725 -0.11801196471474276 0.08062741839523226
17026 0.09921842562319955 -0.0636786045316384 0.010985687744186446
16967 0.09799702312267757 -0.011565334828126607 -0.07487018862857062
16815 0.08754463490421663 0.03618930691268682 0.1265464902730603
290 -0.028621279154257 0.08050100660276903 -0.04535478384932025
14204 -0.003374839797111173 -0.0010555796274669023 -0.00478545760457727
12921 -0.05378416374380549 0.18122330308342072 0.001886014554872792
17596 -0.014077349152658986 -0.115547936267474 -0.018359209498085543
17636 0.01966957391161075 0.04252477450148602 -0.06148025771007967
14666 -0.1232844511454213 -0.023354006810651987 0.006895043996975873
190 0.037410693002110224 0.018463723563255294 -0.006080480283360119
15690 -0.01844271936213711 0.16762933470037866 -0.06947944347433452
1490 0.14494344331245332 -0.26351980754904625 0.0542320048906922
433 0.10539384914395103 0.1384157673151588 0.13929134343374003
285 0.02164535935468091 -0.02504828608199875 0.0424886479423351
277 0.08294057689246387 0.030598389879199408 -0.10364728368838881
426 0.017262671567795557 0.03380695297952166 0.12362257579413458
170 0.0008529423176362374 -0.11709459495853905 0.11440635240063854
17756 0.2586295960384925 -0.13962613485377812 0.029658630308891286
17749 -0.04590324218084909 0.04575790624592618 0.05694868953475102
17280 0.06288439494618338 0.06115236728378706 0.16352753324335978
16664 -0.13545045554644186 -0.03226738625789664 0.0042755062992498975
17443 0.07146423702925697 0.0908836769968422 -0.05715902783892246
14744 -0.006116478914587817 -0.06492673670338264 -0.18058887835656615
15056 0.06016195593759517 0.06788226556906218 0.05218107998505341
16275 -0.040285293654721666 0.11474895076571857 0.08403970292767268
13310 0.026238629231338146 0.012475699717098627 -0.05707442872643283
10682 0.05515658679765984 -0.15986189944728085 0.0043208480297989744
11421 -0.08070759111265821 0.021325080127819536 -0.02749344571203511
17732 0.005920870542361949 0.13766526609345597 0.01972935038669843
17316 -0.1956774160300667 0.00542046186080903 0.13148502797926015
12740 -0.06726787443885152 -0.010734224017006973 0.03401016914858761
17583 0.07883117537184585 -0.001566760070388566 0.11382623141850884
15074 0.02389165844967773 0.06697830477597672 -0.07640944413457157
16628 -0.04189379453242739 -0.06855601384285284 0.12368325718793527
14033 -0.1117820119177918 0.1448555293952668 0.0332940153491054
14948 -0.05158178048010338 0.018219836844457694 0.15232317284405367
15068 -0.08732427013951334 0.021467954763133526 -0.16096432414053205
14787 -0.0032122202831011623 -0.06869464193784086 -0.07313101068578767
702 -0.1053103983101478 0.031234326408661223 -0.049413229341086835
1229 -0.040698434072158896 0.11456590744957063 -0.136204777990898
6399 -0.05157778198320462 -0.0789116286302219 0.16579668709444217
17713 0.02060640566005289 -0.036227483600617456 -0.004255952133645939
829 -0.013081064827997849 0.13112461920041613 -0.07563419122713987
17094 -0.03603001260048852 0.043811964536872396 0.19092625695768137
17357 -0.07130012293796288 0.09337706942791241 0.11963111769828483
17163 0.012938333572734944 0.05619973088058209 0.1862168478409919
17237 -0.1513906688035215 -0.005340473698252595 0.17496649336963882
13006 -0.054254642068256295 0.07246693329765144 0.030417909942923985
420 -0.02989378290261173 -0.07325524356540618 0.022399353968972545
6630 -0.06775412394600089 -0.008326246772165861 -0.06456086106930212
14486 0.07114693181456717 -0.005291753996591713 0.13444403550529574
17736 0.059313386469329786 0.12409489379901545 0.0025027367757486183
11821 0.05697479286796221 -0.014229587902876394 -0.1165945978709735
15703 -0.1503186189946751 -0.04320118036475779 -0.0769126173004946
13550 0.04104696956893551 0.03643857802214282 0.026852680292481577
16453 -0.026419841268897938 0.14190297914981753 0.10101342057167215
9798 -0.21158633463230125 -0.051927261721751196 -0.07083031625879496
15721 0.06162246010856602 0.04867799159905536 -0.014079068896131886
195 -0.079423031837148 0.02099713892429559 0.10082627468483096
223 -0.04974560674780025 -0.10713731918630412 0.008524623628300622
11998 0.189445684819007 0.00705582813243447 -0.034316365042657206
158 -0.05843667969305498 -0.09696805469101642 -0.020086066787563896
17657 0.09614192255004464 0.22471539580595515 -0.024189296632962525
16807 -0.21746522562954082 0.04107159829546754 0.03638649047713112
17748 -0.129468711015747 0.06500516543623751 0.023156321801140387
16588 0.08760482615570629 -0.23213304191090012 0.044296631434032854
17662 0.09894198047592774 0.07430342783170289 0.05718181478867127
16810 0.08483978640355005 -0.19819586135652179 -0.011892122307863197
217 -0.07782815973289593 0.0406384884114519 0.13793859303776349
17655 0.0012310223749858046 -0.07297362649546055 0.04189870129445977
796 -0.050800795999154 -0.08828399658458976 0.11058351229638837
12876 0.10327082068849236 -0.0024450896827931737 -0.02629291666097163
17658 0.006311230529829992 -0.099094334846101 -0.1292574761086183
770 -0.1137754468272565 -0.04515411624012229 0.05836822505228872
12407 0.020862540935133057 0.08312762337685496 -0.011479891601543016
12867 -0.1328801169098787 -0.028350178579912105 -0.1050805868624859
746 -0.005729572823073365 0.10743844688936079 -0.1277667707861142
238 -0.12200000427250801 0.07062134413232994 -0.09193586207447864
17735 0.033409061702870835 -0.027059985532757708 0.012116608465643854
17707 0.08063126416688127 0.006696992463497759 -0.13562802055200934
17691 -0.09455328224844729 -0.03832232556380889 0.12473684773468469
15860 -0.0066388159361641065 0.049087820473744506 0.014491284158843246
16324 0.09557277412595033 -0.16947768930970936 0.07422138064035926
16903 -0.09927929458252893 -0.11764919265980008 -0.008443496073486406
17495 0.027611891162954625 0.066112368075796 -0.025090458308941826
13218 -0.01525621317062666 0.012797457936387188 0.027571435814195022
1451 -0.0018622856184492016 -0.05086523939226265 -0.11474086842915503
14152 -0.16272190833863107 -0.13004221794559298 0.0437075875137437
854 0.05528155816207286 0.17997203441347742 0.08042590934582626
13115 0.06793469902559159 0.13479228286449096 -0.11466210468293642
12342 -0.06632192910380903 0.19015396237869142 -0.07930934918390012
897 -0.03126257791457654 -0.08429546730642133 0.04959144637961085
17677 0.14977641923062948 -0.033349633642980964 0.10568198753364817
15757 0.09208415206254626 0.001539369972315104 0.1183585764620907
11530 0.11353539391437448 -0.09850396582840715 0.0784034886909235
15755 0.0017935091336733905 -0.009947800768059407 0.032228201063212
17411 0.02628965151975421 0.053783613611391404 -0.008174064112063572
17010 -0.05463864826118711 -0.13041629819273687 -0.04655154935318554
17104 -0.061194118845669006 0.018098763390469147 0.13848933770785604
17324 -0.03366525464824358 -0.05142182317334572 0.032309630033310464
718 -0.01730971564987034 0.07714271147702345 0.13725379576909907
839 -0.0203719073014254 0.004790456609298165 0.07663212820160739
13735 0.002921933603853323 0.1423573650639578 0.14504525855136075
681 0.011520267148974157 -0.12057599715613647 -0.045681579085473496
17734 -0.00539405595921821 -0.03927774753703749 0.05715507108427334
17741 -0.0027041952530135254 -0.056646521462415535 -0.12536331615575289
15316 -0.04626053447861983 0.07435948511509557 -0.06193215662091189
15509 0.04726747902752811 0.05504250710114239 -0.07152783885171196
17670 0.03257495362882429 -0.03393184180695176 0.013099668923146277
17462 0.026477976517505716 -0.017825851230517446 0.1352799892938174
15649 -0.02737040772412022 0.12767800204837834 0.06282667717311528
17211 0.01574770132206622 0.11198018476381036 0.08236102470948493
11395 -0.010269503265818814 0.17870629051108497 -0.09956294501554923
17363 -0.09579248790652772 -0.06214957888361379 0.011973644848657573
463 -0.11373940939875812 -0.05254662014038289 -0.12745991156876937
12683 0.037859710482544974 0.025302403811771082 -0.13719665254677252
368 0.1903907466020311 0.09846957667905579 0.11884728146186442
17513 0.1608774743412436 -0.18585755356087597 -0.15292020564842745
15436 -0.08616859200211176 0.027037697646160968 -0.06040462535729365
17727 0.04313502712014344 0.01805097174588123 -0.09486710488220723
17353 0.048192969467833524 0.06955954784957817 -0.008801224535145789
16658 -0.006824672598242515 -0.100932502537142 0.004411148518293932
17095 -0.05714810190019568 -0.034587336649201286 -0.09220850490620193
757 -0.048470255932393735 -0.08482942037013853 0.1269384225695033
17135 -0.017116241166637822 0.003027737976695182 0.11325683595169438
830 0.021643534229375577 -0.04778084155272879 0.082810285342412
312 -0.023858369011119804 0.04795722562025109 -0.10021175939368525
355 -0.09076397620159718 0.00999092589524965 0.016899005026764773
690 0.08143475074520853 0.19871991738758496 -0.08705021961247392
17706 0.0747850674811723 0.19767959928983045 -0.03659103476691103
17162 0.07293730777117052 -0.0982996480479747 -0.13533391321496943
17730 -0.08287372631632162 0.026992411886262266 -0.21213200847592642
17425 -0.032570564141399395 -0.02094549795381056 0.03511457556984988
17381 0.03471500776162276 0.17928834448998 -0.2518602334960495
17624 0.07506747531450494 0.039802693257578195 0.01686042377920295
152 -0.1450834632865479 0.02757126879364584 0.023460217035153837
689 0.04525580256884296 -0.07333850465075398 -0.020666067408336805
17191 0.17815678134383123 -0.1315117870486602 0.015258945415728326
17139 -0.10771618348386801 -0.03244050652117287 0.02245174997291353
7380 -0.08088004726870991 0.06793888910890114 -0.14241051433090327
831 0.15975097965507512 0.07149064657433597 -0.0560702948410558
804 -0.10838522744049867 -0.12948012627067113 -0.18354798598742425
900 -0.028086638638498945 0.10309263680182718 -0.02303886182458019
441 -0.1300988892849031 -0.012144456521990062 -0.1509932986526541
17196 0.016088028638961152 -0.020911915026093374 0.08030494245818574
17659 -0.024702810130173187 0.02675339157526313 0.09114825051034797
17630 -0.1855924222337976 -0.24645706086592759 0.050848248784743984
17235 -0.0856907618470164 0.12181604186171535 -0.010160485174869028
11548 -0.03346244841275127 0.028953686087784716 0.07909034525514153
14789 -0.026152177376541276 0.01668894732675005 -0.06723685710051291
14544 -0.16927257291632347 0.06673289505541964 0.21256695664753822
10703 -0.11634423185981917 -0.0385153625543248 0.025273625035846316
841 0.02127531975249782 -0.04205245383387156 -0.2647573063749963
13651 -0.111598856938553 -0.013316399877532265 -0.08842913016772606
16890 0.037342529801223184 -0.013300754971245408 0.12349222138087793
14301 0.04502099286832952 0.037734081127283825 -0.1314926717076127
17654 0.0029115042948449407 0.14369521168708577 0.12125403359194598
17313 -0.03110797373128031 0.08315189422325145 0.14137448172799302
17690 0.027080353552567084 0.020614204550538258 0.14046365887021017
12687 -0.03582253941633829 -0.03177787880280139 -0.07177968762448036
2605 0.09727598554996275 0.057799874608686796 -0.19620384914133898
14150 -0.04789418268422747 -0.006297718869497322 -0.1816834233943115
17200 0.00534665220810752 -0.09862692964252602 -0.1418970483482233
14782 0.06004542509348009 -0.002301391875263247 -0.10988890233058046
2718 0.029614657096665473 -0.027570394929439808 -0.044181639331174735
184 0.161083590340329 -0.10699480473140109 0.06332360763004667
1649 -0.04088474944369777 -0.3378387165968541 -0.009044255232219453
374 -0.039852108651832224 -0.09596537433649792 0.013892342464957515
9258 0.10127777947310025 0.19667038159323788 0.10376264468831714
1256 0.06564935502691034 -0.035850603713510724 -0.017489616188465038
17722 0.05850263320977059 -0.033575861732049156 -0.11892036135005048
17343 -0.0030688908573998745 -0.14745453458667296 0.025269571718113292
14477 -0.02723948101294963 0.04905166371855485 0.23160592940836422
17621 -0.06500607448072407 -0.03964689197383948 0.0006732326847760928
15884 -0.12779693737620237 0.011007553823640309 -0.039373805228856175
15396 -0.16787301826110407 0.18704269311809993 -0.030996870910670715
16868 0.04319339835468177 0.04850320417709913 0.04210177106053552
15161 0.006252837166328809 0.00379334211376035 0.023117919971455125
697 0.07865506618644338 0.016400392295905224 -0.11730925682319811
356 -0.017140967600968726 -0.0007285398381897054 0.07719130213593929
14559 -0.021741376423457085 -0.029105865808239227 -0.23153798271369014
17551 -0.06932882609155659 -0.014437217990933955 -0.03769005833896811
17754 -0.0621801112566228 0.024469254873018986 -0.04869052581978672
15539 0.10513652047301288 0.041448833695590416 0.06513953225886121
13272 -0.049163610178739534 0.09984978519884297 -0.13621198331416684
16298 0.04388606262389752 -0.18531144015777226 -0.030918115306877922
1469 -0.1508722972754185 0.0662492254275823 0.10019683966493348
16998 -0.005300244444909317 0.03462585280412561 0.1803144363672
1511 -0.26565218635633703 0.08075974538834142 -0.017747884056514472
344 -0.04071196875771979 -0.004318682915899815 -0.02192354554239253
816 0.08343889366466659 -0.014818453949597372 -0.08382021277966453
14963 0.05881794156487857 0.12397452644362719 0.07110455357341311
17461 0.016769613603520524 -0.0442538584844574 0.07049472216063754
17640 -0.011017969855367089 0.01729259976787664 0.011638016531517324
17429 -0.0722830895871727 0.03674701678856619 -0.08928802957703073
14961 -0.07129300164990947 0.020951665395088935 0.005591535192205405
15239 0.08850014745154226 -0.11637519821931783 0.07934662180004759
17377 0.13268588713586899 0.10127200406632438 0.016278847846578258
17438 -0.0837029663860713 -0.008510385417219279 -0.18004384946514285
15501 0.16691329327060753 0.12419976107158723 -0.17173307442611718
14833 -0.013530772301290229 -0.029460851379555054 -0.09995124441325172
1790 -0.08974941235575226 -0.02371476361431446 0.0587036700526962
139 -0.14399580599211362 0.08904219219991402 0.14335918481028243
886 -0.1540042099290169 0.037217416859907065 -0.003875552975204064
17667 0.04463758294119424 0.07669574041946116 -0.04880779492644205
17040 0.10090171322404641 -0.04586052328404289 0.02854544825451156
10863 0.05319845487314262 0.050982974981487184 0.06167627909872204
12912 -0.10704124292921244 -0.07422336160075803 -0.12600872156841053
16754 -0.059320350678085845 0.19159887382143864 0.09372841898115156
17696 0.07581089138881186 0.08060407294709913 0.09252662224718107
1152 -0.06895691556959593 -0.045084486975756156 -0.06696135096016155
340 0.16175975317344124 0.15676009598661925 -0.03323287630005605
14524 0.12714528805353323 0.11817209817814178 -0.02871681508264847
1136 0.04905207086638692 0.131722913152508 0.06198805616617364
16604 -0.04114922304728044 0.05013654459866976 0.07039225529708648
16116 0.167537782437397 -0.08962244080015554 -0.1502714306661019
17614 -0.005404470555779466 -0.22124700778011125 -0.05783515933388064
13842 -0.009309786406741613 -0.08173282033034118 -0.15433298900293463
14844 -0.03525610614202606 0.003502135293488834 -0.021166688734451385
13313 0.008008384567544803 0.03131852752199193 -0.025545806644078663
892 -0.08235655852732574 -0.11155355636257133 -0.12302918066752094
6095 -0.08208284607753577 0.19672933967796818 -0.10466886649952942
726 -0.012287175290339361 0.051904494892525715 -0.03253360046972107
11457 0.07270509135464279 0.018226119330923204 -0.07881433150305087
1195 -0.13178054804626382 0.04118878582764403 -0.007900336676485473
1235 -0.015143311806193098 0.026062663923444123 -0.04365605509182176
17115 0.10918247725802674 0.05112206230654074 -0.0697617101791443
17714 0.11492898898728508 0.13216526203036075 -0.13371404020539945
17669 -0.009134822409079611 0.04791147671784782 0.15106229146868116
16159 -0.10892974893394422 -0.044075501075821394 -0.0789361950756413
14563 -0.054476386930089875 -0.0030871540910645443 -0.041157297964299434
17571 -0.16989488872604847 -0.02473824990530844 0.06124257241510509
17585 0.11287339871403833 -0.14694403605162637 0.12155278564813342
15236 -0.14622511502922073 -0.1561840135212491 0.02669226325519826
15334 0.030664965592064483 -0.039224121795829604 -0.024066048667653835
16873 0.1229829003622284 0.08935335355351212 -0.07025851675582524
1715 0.11966277384483501 -0.17443193019874362 -0.06544497302272537
1527 -0.046423712668783215 -0.05248091354361306 0.051315259426867973
1701 -0.040686045286445705 0.19503885937426083 0.05596586052138637
1446 -0.012975188924711778 -0.0613867941814646 -0.15592773933155554
16590 0.09884237043188389 -0.12509013186912793 -0.24453718312962336
17757 -0.17150013016643575 0.05389956359120231 0.0529980293774295
16520 -0.21271573873231447 0.04263777951086765 0.009839615404029734
16822 -0.10954930577887793 -0.04837716661426878 0.07852437640549398
17561 -0.058497841338240666 -0.1369510182234472 -0.2925872337197029
16720 -0.019654323824281138 0.01150081823560746 0.053797748044771845
7673 0.1197132977700307 -0.013496927783564634 -0.008699309623268672
1551 -0.03986333804193961 0.007462987613851068 -0.005604681681975001
1434 -0.18287625935993215 -0.05654213076139582 -0.1694899009484413
15462 0.08671805984949763 -0.00817736265310002 0.19601093347065357
7341 -0.12115898267595879 -0.008290619128523004 -0.09651896917169053
1169 -0.22839947115221046 0.05356124153036463 0.02754040712030033
1512 -0.05031829532236842 -0.10831754764172088 0.06672899560094978
1509 -0.012275499741902236 -0.05777334124563245 0.07777224072868778
17728 -0.11521344228453397 -0.04978695854627211 0.08121507104130603
17480 0.006656613336141122 0.048784682560921805 0.03505785563699976
17635 -0.14158755887828287 -0.051134531475518094 -0.12305380226113896
15987 0.16974337499208925 -0.04053910169250978 -0.11412009948863777
17626 0.1668595427154371 0.04307181191279017 -0.055534881486493645
15595 -0.021178439435333783 0.19943435515937677 0.016938236117877786
14846 -0.02174791016105592 -0.21668423624037841 0.09177575114531557
16970 -0.06625129969180348 0.08448667319275384 0.04085324021326063
1213 0.02267105593579145 -0.06693420659272878 -0.03138807934923273
15314 0.2083578973390906 -0.09803865939605116 0.014928151819772105
16494 0.2069515912367546 0.03017147459524042 -0.009686545168610948
17130 0.03644814072836507 -0.004724856610170393 -0.050007952393271354
16040 0.04476530330064527 -0.017221468065473932 0.04659335075538663
17554 -0.058808416858187745 -0.017072386378077658 0.032723581453800665
17651 0.16191604827786737 -0.01922638703636013 0.19192263642809446
17387 -0.0766022213216487 -0.025404703584476274 -0.006500647654080052
17453 -0.007386216719125871 -0.0034077629243875786 0.1694090426438043
814 -0.08986805785351623 -0.02485859479904484 -0.03628919422131542
16233 -0.11344914171809231 0.08609699443569482 0.15384935543539713
9988 -0.01788221679787256 0.058900320922103226 0.03956847797360402
8407 -0.2557933641897272 0.023167330733886594 0.01863265250226802
1435 -0.15905977404054653 -0.14401974457478917 0.16798311877394323
12490 -0.11037782827342475 -0.15328367853293834 0.12381403567494267
15057 0.061267224406028054 -0.0771161629579019 0.08536169568031557
17733 0.045822859016980966 0.10205476474258553 -0.01649986347056872
17246 -0.11074869181734029 -0.00515760079232689 -0.05868066918057724
15936 0.05275743856874299 0.145490854140604 -0.03362485417158882
16473 -0.01024019898455113 0.020963569710982934 0.09172214038229755
17560 -0.10864007631142467 0.1069990668089279 0.13243602330506457
2639 -0.030191758715368056 -0.024131478032807428 0.061217561953743435
14619 0.01580300356649717 -0.000180195689037781 0.057798270247880125
15713 -0.11208694913188927 -0.0787117382035733 -0.08176390932582181
17212 0.00979085855356241 0.09121666498532231 -0.05388248994665355
840 0.06402422266008995 -0.1611714223642558 -0.01046490283429493
13174 -0.2221829116241291 -0.17492884934802982 -0.11127413117954846
1508 0.028679616219226427 0.02875726330969943 0.01855131839637416
1543 -0.009363277303620089 -0.11332017298874764 0.04443755532879188
17557 0.004358663207930331 -0.00035869200604186826 -0.04017146214825835
17579 -0.13844373462903076 0.14593754236386855 -0.12571352131440108
17455 0.1401474497626088 -0.01515449967307803 -0.03156874395306447
17589 0.15125092717317576 -0.012086206210917876 -0.13472189592028933
1055 -0.03990810290491487 -0.12937201518255736 -0.09200848102226883
15371 0.018772098214560873 -0.2397516625032075 -0.0048534956473417195
16329 -0.10019813812673864 0.21048721157647876 0.11642349002785585
16894 0.040776906902651296 -0.2472463855034432 0.031380895425520215
11026 -0.00535438374306905 -0.10012931457000507 -0.0542913096235708
1178 0.036804115667336296 0.09628836628084225 0.03455588158341072
318 -0.012587245672744985 -0.08217366382177684 0.044041778409929386
1517 -0.02677822270825304 -0.044849133655712206 0.1483300825613914
16054 -0.08068977181073948 0.15853211837395545 -0.05207350483566542
17002 -0.04264901314575268 -0.025470899908303403 -0.05997135475243171
15555 0.05580153233759494 0.1304142258980822 -0.11138503705577917
13934 0.1314231430412295 0.00942403767997322 0.009196890426955949
16746 -0.05072609459787012 -0.032762230302286297 0.10101873077123906
15856 0.10449283641440743 -0.008662130823507933 -0.1915056202019722
16632 0.02856571034458673 -0.014178648614037217 0.12562632939169724
10002 0.10209664568579768 0.09249404686814434 -0.0004308803880244763
17292 0.047440674322804986 -0.12227979342721751 -0.05672201366834019
12991 0.03178154722340263 -0.08224210884919667 -0.07774767589527136
1485 0.00487245743601962 0.05519520100085401 -0.11698048685007405
15761 0.10863548587467076 -0.03181386155329906 -0.10568584900806757
1537 0.09557861164472381 0.14348935310798988 -0.07001475937352838
1251 0.004290906177335227 0.10650588538748788 -0.12680711653347998
15625 0.11576208620305801 -0.03574601404933152 0.038893265562986126
17395 -0.0021844611844824575 0.0018362104850267566 0.01758685297215621
16342 -0.09288591770197409 0.16480986325228994 -0.1213826683877536
16665 -0.08122225019939311 -0.12253546545108135 0.03330648342646524
17499 0.08542992794355264 0.07022919924140972 0.09465700212348785
17069 0.035507653274170374 0.07233185891389975 -0.22445974985978118
17273 0.1251212457830402 0.10672073466936362 0.09888378484859599
12714 0.0020539234973400017 0.13157471938594897 0.17602000032158224
15680 0.00040312090363689435 0.050861722703543534 -0.05285927765583809
810 0.05807347667837344 -0.038660793131550616 0.13120855248835017
16738 -0.10448576648018597 -0.0730764269488137 -0.022458682090626143
14068 -0.012694005624424654 0.043890414020843524 -0.07762194278831636
17747 0.1420564638246794 0.015349218978684524 0.13620411167476737
16100 0.02293312557731081 0.12198001790449849 0.026873123173775337
15644 0.11666188623085565 -0.08045082968052397 -0.042913046868285704
16292 0.1017394620723048 -0.15443826246134762 -0.11975810134978705
16320 0.0658530274228408 -0.1179806051509774 0.078077469527914
13604 0.001601979340511303 -0.06304967634265186 0.03242472496239716
16058 0.05882376324834354 -0.02589313980655579 -0.007826090332952854
16530 0.03927568764583265 0.10399915231585186 0.07234866827879763
13378 0.0209112666843616 0.18803525842272723 0.11720405302812636
13424 -0.030793674217054562 -0.007378361395081995 -0.09922281973442246
14657 0.11215776353057245 0.06190996549761742 0.016476893677631364
10798 -0.042645452570844886 -0.042331944316648155 -0.043953967555002124
17753 0.05723320742855917 -0.08192352365699745 0.08947575899103347
13910 -0.0242277477782723 0.09911696847006009 0.07981837115611781
17512 0.023195494011362457 -0.034671767438555365 0.003829064003678658
17205 -0.054317815696965525 0.052098662913900334 0.031181381650103958
16091 0.08754849099203091 -0.056344961881390904 -0.1419810954405227
16118 -0.013314715620506248 -0.04291775630765004 -0.0008563562617857276
17508 0.07683441162621414 0.07828862626752535 -0.15000473179081725
16783 0.10356584646412098 -0.15800880610439108 0.08023389441376735
12951 0.10474617201400574 0.04567314912636522 0.12826767439144096
13123 -0.11882174722046593 -0.12780078108233084 0.14459680997385332
15775 -0.04374961320177232 -0.05333299104292931 -0.17677992922676902
13932 -0.0745186729489617 -0.025321672104597667 0.07155422234966546
2533 -0.02034623418690774 -0.023682113664934428 0.0040986441901110894
2163 -0.046107366650941804 0.0391705798750217 -0.17678367029733968
271 0.024115540039320177 0.045222346684708384 -0.0907229013846129
1421 -0.07413958356449193 -0.1547974519285862 -0.056159343379188195
14139 0.008066400661042694 -0.04445537267978805 -0.047231216756023334
6447 0.030506229665826737 -0.05273619799531704 -0.025687544470547642
281 -0.05626356930747492 0.061799972274269255 0.04498825579170685
375 0.10595022086668451 0.043971296567282256 -0.02396563699372903
240 0.03663832923395521 0.03037171595793716 -0.05834102718673321
682 0.04296237251160388 -0.0178827922700333 -0.09342644309425188
348 0.015559700324328374 -0.032999188509183534 0.006186751953562761
1313 -0.00491168608845613 0.16098337359497153 0.015769464565188084
166 -0.099541830244264 -0.010456401938407005 -0.054436584479710295
412 -0.09536587917902958 -0.0007401768721512765 -0.01397127534049487
490 -0.044947644188670026 0.04021455768532346 0.1755315932459644
1014 -0.11326942147533671 0.012722215231325423 0.031406290198346114
989 -0.11613761335110075 -0.07267438067840357 0.02541697057260501
654 0.12354594196341011 0.05053913106050291 -0.04634829287467852
710 -0.14517950969179375 0.12746637618722337 0.05643139146082086
632 0.048710138086205335 0.045912771502601826 0.02833220051646036
14659 0.10071081491432084 -0.08001169981672317 -0.031468763357728025
1047 0.08659908356969528 0.026663952726090456 -0.16631673272698208
192 -0.0767523956742522 -0.04149368469035422 0.020879333788033375
369 -0.0467372737931703 -0.1536478331721426 -0.1624817118757251
162 -0.04381897815912284 -0.0004858011127086958 0.011866244770477711
417 -0.04297958099870111 0.1431352051462268 -0.003726953283353625
399 0.06454470476076328 -0.05776416108220862 -0.029907435590070995
209 -0.011370233907088509 -0.057711894701984665 0.014457374818810476
1275 -0.07590356331662305 0.10280174435213442 0.1795218037986237
203 0.0038634432011858087 -0.004974256913829647 -0.06146990918743389
378 -0.04064111431594875 -0.07233509656117543 -0.010885721512557723
506 -0.1295371276115081 0.06225064481701267 -0.031927372693670866
1058 0.12779537689335382 -0.13396677925855657 0.039782339628221586
1048 0.04090212885568589 -0.0026675661377175697 -0.0063657384786848445
1633 -0.10403203755885022 0.09598083569186013 0.04857930458670305
602 -0.0746783129617885 0.05376491648742272 -0.04107278790653523
1309 -0.024699513539096142 0.038885484627081246 0.02712168713406668
627 -0.1626444579763093 0.06604551175110826 -0.011284853720926784
377 -0.032889388292992226 -0.19246861564651693 0.04658182791788949
1162 0.06864412219329746 0.025215474305443214 -0.024526766934668834
1249 0.15949282493924677 0.042797666651424815 0.007802625534458266
279 0.034226907328330836 -0.09184670046779414 -0.02807592077162654
371 0.0684838688374772 -0.03937255339576645 0.00739080162932965
1139 -0.04349292830502263 0.05709093116913955 0.0951616363916563
297 0.06510754685959341 -0.05364920776985145 0.11280355785260635
360 0.029385515983080788 0.1855773328336128 0.06615635143980234
1355 0.1327929484702009 0.15921106233236665 0.03857232083755869
308 0.10408125824699509 0.08079691011589865 -0.018070500933792682
1302 0.15607528934669876 -0.02957080252572507 0.048215411500984004
652 0.023107473374916997 0.10036838467031264 -0.018316268639950326
558 0.08269535354406934 -0.056890268365152305 0.05982158185015857
608 -0.09543938959354596 0.031777582173297195 0.030678558038713256
660 0.0891438704141848 0.0240775645483517 -0.08743820621435737
1179 0.09792741006256392 0.026568087767639918 0.00995443613188038
317 0.03682621144337257 0.13838028169313196 -0.06168185882244355
1127 0.07262452469410947 0.06768911110048076 0.24550961983209385
1262 0.16497750971641845 0.02220626186132374 -0.042399898917484136
1198 0.10619351162170759 -0.012839323462734678 0.056400055514032855
382 0.14513204430538343 0.09545010797511728 -0.14875466028591558
462 -0.044196702286526744 -0.010446860130184348 0.11575281766156738
212 0.07167387200618155 -0.11252156424759516 0.09097479215528426
196 0.029360099926283936 -0.049934610336336935 0.10868397106390432
649 0.09733860153707297 0.04043545976581424 0.1133469414016376
376 0.005183412411310498 0.08145267367394698 0.05264536755990017
1171 -0.05617385655270316 -0.04246745729714693 0.07118946454885558
469 0.09400581944466914 0.037394976343596315 0.08949757980405484
505 0.0054859497725326545 -0.1299706957504625 0.05383605491412711
563 0.031173168559848495 0.08626755063126969 0.05371229464259783
226 0.06416464772799793 0.2541371638180472 0.1027173335675891
472 -0.010655511042032172 0.05179934269004044 0.03646253391323163
450 -0.1504349208721971 0.0005959132815565593 0.07273009994133554
383 -0.08065051048623331 0.07808548915519403 -0.015709607564790253
398 -0.04592726681197974 0.009469326381848544 -0.1008629846598892
440 -0.020352084712329462 0.2000123919309747 0.07696973630212883
250 -0.08733214514360284 0.086364010426992 -0.11988758027560459
140 0.1684274227385444 -0.09943527239232758 0.011200046187550522
243 0.049171097144681916 -0.0923359813640718 0.02882714680646582
575 -0.16049021287506887 -0.1290290385321499 0.04825231146919464
1023 -0.02903901972698217 0.05375231182847513 -0.018776496613701114
272 -0.09979783109217374 -0.1384723593050038 -0.11652100694777257
215 -0.05728816072061932 0.08006212545968296 0.03081540157275333
9858 0.043694775381017584 -0.04225234531753109 0.07008590703458698
596 -0.021011375609113175 0.1546415397838817 0.17535111354265273
497 -0.18181704211089952 0.03786957922675003 0.06517845473951817
323 0.09512683297247476 0.017759202138290846 -0.023685589889056995
254 -0.005551520690413963 0.11362139784396676 -0.20631692337315463
395 0.027889543545309498 0.004815217070054036 -0.06208474689365652
327 0.03037881180041465 0.04710419830936166 -0.017489762628123837
391 0.005647394944181441 -0.06879032985224592 -0.025368234176030503
174 -0.011299046699974611 -0.02824306044220362 -0.12927185529289958
206 0.03136211281001523 -0.1191839826213969 0.056140566167892654
211 -0.104067889013949 -0.06419430128045243 0.0052404020969391745
578 0.004380066056990493 0.1431983820011053 -0.03100785893348746
520 0.05720815886408834 0.11159311190300276 -0.048839440855085826
611 0.00855051784959647 -0.0389187529768459 -0.016871364954235732
633 -0.14014405182643305 -0.03144371978947209 0.07149426345755279
564 0.13910905447388866 0.08910815542894959 -0.0019526019604549074
717 -0.03115768952017531 0.0015809572717132292 -0.024730073983120663
342 -0.026655884742935183 -0.055955217933970486 0.16781075037160123
451 0.07793026150952567 0.09995662909759333 -0.05831410338774077
437 0.08977927844480177 0.020292193097773054 -0.06708235963071472
260 -0.001554930625907532 0.12353084551057636 -0.0646740883346602
388 0.035290196833140774 0.07281936287233956 -0.04115342990078709
231 0.11667652693038373 0.01052937246837796 -0.021017989649746625
351 -0.007184323689902714 0.056230714649777164 0.17706562268361567
134 -0.0077031670705539415 0.07024180179281471 -0.08724180882623583
659 -0.010576092844506342 0.02091863347754406 0.02975344118263747
1654 0.05390610524446249 -0.15570136459575945 -0.08642533718018541
415 0.14026706109967899 -0.07623457538718922 0.1472946990944684
638 -0.03431776463136847 0.01690510226365639 0.010693886175149936
616 0.09507798232948905 0.15973814944355752 -0.04959472572733287
539 0.10904858742003037 -0.007735616865179621 0.010097552696247628
471 0.12376804076708801 0.03554989818985695 -0.04397992846945338
9805 0.07749916739197485 -0.027316000511931962 0.14728396545186184
619 0.016699796154858847 -0.12447687748033216 -0.11764520283349553
595 0.07765937820806268 -0.12794343210131917 0.09574202264024084
4977 -0.003265573784403798 -0.05557887372809662 0.02113690567923169
1668 -0.3733635040780989 -0.08583711339976888 0.15123616823911337
446 -0.11388119203136583 0.03135257890324775 0.07847549977557833
1196 -0.0058553496460960995 0.007849077397921494 0.07457879107920899
422 0.0939645490577185 0.12539480301121897 0.09390607939264965
338 -0.09553935300669583 -0.13422090012341828 0.07470066634403558
230 0.16730029291622625 0.11758655830153614 0.010489889314709823
258 -0.02702105173829405 -0.09989890069558738 0.17279058134289024
358 0.05269153871848113 -0.011947612087640199 0.1108008945749614
173 0.11007421043381652 -0.06115890413507148 0.026745824316905392
661 -0.13970835310729895 0.06494244903425374 0.09398987633277105
1667 0.13751828532936347 -0.021547039378823657 -0.03913185646979827
216 0.1128403557815323 0.06077803917250291 0.24009517593373678
669 0.07502308249167483 -0.006383547737669583 0.1139780205862861
521 -0.011939515518175061 -0.13267096831243624 -0.1289405509296226
164 -0.13487350350179309 -0.004682412877066101 -0.014668318130292846
494 -0.06155357732803292 -0.13719549418043342 0.00963070844775779
623 -0.11305165145021537 0.06660870096015835 0.2084344581462606
507 -0.01927526173972404 0.15352446803262645 -0.12673030497990356
16726 0.10197715931473963 -0.007140170953693053 0.24268514843725245
175 0.038094587922209884 0.04439037737358069 0.0417866054397636
755 -0.0003239116311588505 0.0976987456805943 0.1348403581542894
750 0.03971377985279856 0.07409825863289063 0.12768191332186796
296 0.05863961230863269 -0.08316111604687858 0.01553460153192337
782 0.07344963991495947 0.05764727144813471 -0.07778811878818506
692 -0.010656336074657519 0.026759768655788083 -0.0037361322723459406
411 0.10990284586422154 -0.018750878420021332 0.08308469982294005
476 -0.10998939910617644 0.09348698642423688 0.05245438694433598
512 -0.10767051480682151 0.04431826453216374 0.034360423801778436
1013 0.07267023870469591 0.03557206087644727 -0.050362701146977246
314 0.03788165191113292 0.009002399605816235 -0.0011676378058632485
940 -0.027468849063653128 -0.13477393676324081 0.09454536991260401
1029 -0.09973911464988586 0.13745995309329437 -0.1124661906025487
942 0.03435404733610869 0.04132196661938728 0.008337030004568199
198 0.10337672046981283 -0.15434404227580603 -0.011044491253108173
349 -0.04098683237825393 0.06798172152719723 -0.1667949277187219
249 0.14405382517804724 0.10283044664015575 -0.26293577274628593
354 0.10827307365310654 -0.1270805169067785 -0.02353802876876484
229 0.07087857871963618 -0.05386232017994006 -0.06625475318494169
220 -0.09710900393392355 0.1256765658249422 -0.03621566148607094
447 -0.03179752321055656 -0.04941386034902747 0.027542812569791082
653 -0.0409618769009492 -0.14522592237231244 0.004216885391432461
148 -0.05188019358222392 -0.06405961258261572 0.08278733711640712
384 0.06835931100071405 0.055401791541478465 -0.061906807453439995
482 -0.11280264996881637 -0.04568614042551849 -0.0780091118819423
379 0.024265994878740076 -0.12015715156764249 0.044045948789469824
495 0.032775668957589724 -0.10561984939954044 -0.054255132844851374
599 0.05695251337876435 0.08045753126980164 0.03498618811132567
573 -0.20055930272387001 0.04228162620961036 -0.05604861483973053
592 0.0033472789320326476 0.15551506913643132 -0.03421141710912296
335 0.031085832585660295 -0.0033264968014850363 -0.04542150078932213
180 0.012009014802861664 0.0493537129707811 0.012011788434448343
4990 0.08988588121918033 -0.030884324822428554 0.16009231803486182
305 -0.001980218842816718 0.06055566898741513 -0.07162862305505552
186 0.08002729431634215 0.00210703576866373 0.08756508322398837
329 -0.11848645759909163 -0.10583095941362632 0.1299513505349775
322 -0.013833244763087468 -0.18452858384861381 0.13622583841067604
268 0.09016841743039343 0.04027118070644496 -0.00798584638958574
574 -0.17679492401280755 -0.10158282440559648 0.09775334925045175
1653 -0.17600140468912073 -0.0406712606297981 0.036144425484070646
478 -0.06231771479066746 -0.007111081484971516 -0.04969922307879974
640 -0.027360426264603183 0.08094021351234976 -0.020963550042158847
510 -0.11607314327998557 0.02373880687138162 -0.12868544839307397
562 0.024588017392130353 0.03866388307650651 0.10894854592907198
670 -0.09818579417252404 -0.15370409294534465 0.01626368637425247
1670 0.08906985149169408 0.13294098949772382 0.23893806873094564
416 -0.1119493706448649 0.025546284570045145 0.008385569086551671
6623 0.006045500201562708 0.07131490242604847 0.09819843951016903
267 0.11588823494919345 0.08308792055482969 -0.15197516605506342
410 -0.0315807852322283 -0.009530978355228082 0.022963554059217683
151 0.17214628377375377 0.06993739284326658 -0.03273574318384748
301 -0.01696583905104948 -0.06460832637680385 -0.07563247292041005
241 -0.13150929190826946 0.024486863791511267 0.0420768086948359
256 -0.07243867392449008 -0.10362660498747808 0.026607720353816373
345 -0.08216747883004188 0.02953875256470074 0.021111411742807343
350 0.03817169735576404 0.1386096139455721 -0.04670383091734813
218 0.1281180626884158 -0.0637261364775929 0.0590827683876305
237 -0.09580484431234748 0.03000018053753155 0.1183950711077073
92 0.20885352957676345 -0.030291886092947622 -0.026270154559050216
674 -0.04319614755206633 0.03802507458704275 0.0062338623417064615
635 -0.0648580739257572 -0.041437031660133176 -0.048947972320698405
481 0.04378365256341835 -0.09211343313241875 0.08379569739147207
591 0.03571141896011294 0.0953172453911616 0.0959839836796588
700 -0.04225764461480883 -0.08267250521411258 -0.1432453903681482
721 -0.2213139330076711 0.12200377862118313 0.11319983231885461
898 -0.032660273514313956 -0.03965334956124479 -0.07210855406528048
407 -0.01400128275338914 0.14891343089345688 -0.07152546728662504
419 0.050267760327022584 0.05428981166665359 -0.05538371950109289
276 -0.06259097958288964 -0.02867149749195124 -0.054012268344125314
1427 -0.04195797933993997 -0.013811669714707219 0.08924883242267222
261 0.07296500362526732 0.17088387764799964 -0.04473719709348315
289 -0.16536331729849968 -0.06436445248723291 0.10644512282291843
372 -0.08431048575732462 0.08022474635347415 0.15761629065263894
976 -0.1604253229482281 -0.052997130350509 0.12225327210609377
944 -0.05580205321253715 -0.031293034117495205 0.10030823052499116
1036 -0.12862603264945605 0.054216605608737437 0.018094641881691843
1602 -0.05188432632372461 -0.02710398663291287 0.026210283854875414
589 -0.04036334890564967 0.0851760597541015 -0.0952693678928574
999 -0.056244137383587946 0.12786757879730826 0.10481969574457221
11403 0.01039181658220886 0.0955269949438441 -0.06962452727578222
288 -0.05103634953573292 -0.035085378400034645 0.04741867231909677
362 -0.03161103794661545 -0.0003940925922245658 -0.09697454372357978
1098 0.005642736433456929 0.003970508786293025 -0.12623234667477884
165 -0.07307844644018813 -0.11132048051650106 0.1263308365669819
337 -0.028324797295914618 0.017581231539788737 -0.019691770270825408
535 -0.09123726995970567 0.07463539919594384 -0.06477737190841262
320 -0.011163837624747583 0.03977675669167232 0.008682505734463506
1059 -0.017902106187467855 -0.04482172371196036 -0.038897825224305606
225 -0.19285491756976555 0.1089686726945313 -0.16772477176432657
569 0.021459353032343687 -0.0701592922920142 -0.005692201848241879
929 -0.08090374793841804 0.03247293137420105 -0.010468767681942649
667 0.03241305554722634 -0.05362881793191837 -0.027817634320628885
605 0.04418668098368499 0.012052438741531004 -0.03765010955823321
479 -0.16347304978225832 -0.07982586690788825 0.057397432490359994
609 -0.004723786956937297 -0.086753840287539 -0.057947249009926066
12212 -0.036489226140607775 0.1166805790579611 0.1086404721722013
299 -0.0806510542722089 -0.010667223971474507 0.15925522538301934
111 -0.03582053043030208 0.016958885477338752 -0.03178165595082327
13425 -0.06645165049239683 -0.042785827756028266 -0.055295360993880396
428 0.0482456947059013 0.03632644092376731 -0.16348324895358068
108 0.016187169718682698 -0.05232066357846325 0.038308142997476334
434 -0.024715521782994857 0.06610138570221727 0.1664370294182158
438 0.052829213410691495 -0.14638668770388835 -0.06370394670942402
109 -0.04924761827761518 -0.12218420506113928 0.09452601733481511
532 0.050102303550292646 -0.006478727143001201 0.01383241566046053
547 -0.013037202643772384 0.0469740676548763 -0.08600675189216629
339 -0.12203878060350701 -0.06329637331583585 -0.050098867146026634
579 -0.00263598623381385 -0.15787063754219718 -0.012425598658541615
554 -0.01525927505853044 -0.10518019130545353 -0.03936431057473362
551 -0.054897433136198756 0.026766785921481732 0.1290753625147756
530 0.01696218067338586 -0.07361038621147091 -0.03579700549101304
262 0.018000193526558413 -0.0015715364121777582 -0.09094112300602164
459 -0.09801829564913278 -0.04100896283889128 -0.046774632145134845
1647 0.135813272820395 -0.3200544627621076 0.24234849330522445
104 0.06935690730394668 0.2874459045156592 0.05065458353718516
107 0.06240412605678675 -0.00400011227029427 -0.007565984579673392
319 -0.11404836723348985 -0.038473938855333 -0.15463112890576614
8 0.021726746399772547 0.2634999133508538 0.12092345684824525
118 0.17081000933910506 -0.030617595082052328 -0.12517244429489255
456 0.2472139099789828 0.08740912133040195 -0.1612569379449259
124 -0.043131659416257545 -0.030085265905450083 0.08290373548228798
121 -0.02976769449461887 -0.09146067731483169 -0.06495554429926186
105 0.09898323811680856 -0.11647350681307629 0.012428422362661265
123 -0.09430063153677899 0.06942983742368541 0.21289509486585537
100 -0.09202480875214403 0.11694605669778903 -0.1077003785714543
102 0.05916759788131485 0.04044173071430635 0.025271472506431983
103 -0.011161603797032113 0.06963369372731777 0.18751239700799452
106 -0.3038471140423503 0.1939108224149056 0.09037910949456851
122 -0.12955019856823155 -0.0747974961603898 0.19721863081366772
127 0.12881733094825654 0.1575397094154275 -0.13917980792417833
236 -0.09964262841760976 0.2097364543496335 -0.10222258948060649
14 0.0194351828399044 0.018231043809921604 -0.01117652031697877
30 -0.09137853016600811 0.21608459310206687 0.15634049653846088
131 0.0006688960826231206 -0.03535211525209095 -0.10682346214491194
98 -0.07412460833441271 0.17827389965881837 -0.05508105219612337
130 0.00799762401792976 -0.050240424880290985 0.08767155391356002
90 0.18973438734515757 0.013975980279759062 -0.08594397555977794
1666 -0.28589556238450137 -0.1086797447883979 -0.01081505999069899
19 -0.05820791014486608 -0.11646366513089809 -0.06185324851199825
129 0.19648414373951412 -0.13150048916190343 -0.005662181667996636
128 -0.06296281222283076 -0.09638748861474741 0.07212960543086006
525 -0.028483017562240028 -0.029905508533618817 -0.009461871179515455
93 -0.08772562287854571 -0.09139241125938888 -0.08598006834699416
95 -0.3292690524865367 -0.20828035307940335 -0.22242023531363903
149 0.18603282250152942 -0.010827643297290437 0.0837521717820884
126 -0.07290624953923988 0.22087136974537397 0.045712242104068435
671 0.024624720608843756 0.1366434164525911 0.02462035610955636
22 0.0350964875334275 -0.09968835128361783 -0.05579781526695091
620 0.15233670677668465 0.056004305099127724 -0.07440915440805418
20 -0.0775435221914075 -0.06505569699801872 0.0711735730242292
1663 0.17088153664270425 -0.011808690738648032 0.20063780913526796
24 0.02623216061379464 -0.03943923983905906 0.046885290925485414
473 0.05788066953165871 -0.09565242660480881 0.09375058250768088
21 0.1445719048226451 0.04409195110489614 -0.033855884277805726
744 -0.06436452159200155 -0.08911422785967874 0.12213389764935972
239 -0.053288654972389486 0.04159777521366059 0.006177785580507012
699 -0.020158289393603417 0.1090284288289267 -0.04428611402801248
1411 -0.004331260583158803 -0.07473309803988265 0.00579571832729645
202 -0.13058532395365607 0.023738807610140432 0.017812835579055962
658 0.010842570358029643 0.07201977372048726 -0.18081823619229434
871 -0.07645552787668514 -0.1079993472941288 -0.03254253175643386
364 0.10079915013630804 -0.044990764431180524 0.11840007786370371
313 0.07053213046954539 0.0465425591820893 0.05836900942096875
1187 -0.04798414396412682 -0.051705122002619036 0.18451800551265227
1312 -0.11461625200378935 0.10162722413569986 0.030615573408361664
1228 -0.06790748021788368 -0.0924411335718683 -0.12567691787884347
641 -0.030800688102350697 -0.1770306519606397 0.15368342234081767
1565 -0.03302902930125945 0.11208911083306894 0.007670975501756692
1301 -0.007423212536124643 0.014125530497889073 -0.045927775625625805
648 0.08505481963977739 0.028456963182998802 0.11031853946438411
1197 0.022147524971627853 -0.13174020515066504 0.09472489479434944
205 0.06387917363253542 0.06353773987162842 -0.10618548253111929
204 4.516764394526043e-05 0.014637127966261331 0.0536580657219282
1199 -0.0017712459933456395 0.10377021533684835 0.08048433230350753
452 0.1673949734230272 -0.06828205319721854 0.1250398872788283
457 -0.18742827037650725 0.03159213430035606 0.04329492049625899
1106 -0.08221606770866334 -0.13762694195688335 -0.03976514709257598
172 0.04757470990724859 -0.029011725872048096 -0.03205240173234118
155 -0.1216355034921447 -0.018799182569517355 0.07632060392748147
1073 0.12125999131030561 -0.03167597415322021 0.14635885725089595
474 0.03389353386426261 0.023229385225799898 0.06831317441029872
1194 -0.06073142883400487 0.11602314312442552 0.02340352951298733
546 0.03963827248651609 0.10531382662199809 -0.1253522958658922
1321 -0.014481317330492226 -0.12212714416424353 0.06351580286544999
1322 -0.06976691179966293 -0.0901092186681851 0.13015533032481616
110 0.04700730409214632 -0.046404421069873934 0.09633521691844507
1131 -0.052300578303533886 -0.08279595294547046 -0.14924752632529487
1148 -0.13807238149659598 -0.03688708592976393 0.029116131876275736
311 -0.02404957600249059 -0.04657813457803094 0.05258407170763124
324 -0.04141669917299004 -0.12096777274225977 0.07873918753928365
1092 -0.17219333099486386 0.01889182361559247 -0.07489765823322939
193 0.1289426591859105 0.09871149771458232 0.05770765386137227
167 0.12731348815213883 0.07544326829259623 0.034758803289322036
1133 0.18632697904173595 -0.037837305372250336 -0.08518783602229393
582 0.10120030534107119 0.010432622736128648 0.11576536147046945
1314 -0.18062845757305576 -0.08140378997170536 -0.20776752462566733
307 -0.04390491357234859 -0.12598807163010944 0.08026543381360061
1356 0.027702683389288267 -0.1160855693169325 0.11280309163325217
502 -0.019901897607487683 -0.05223936870286096 0.04957864424168796
529 -0.1523289290430959 -0.14163503832011834 -0.06507123942574988
1292 -0.04634931171164447 -0.14499945640002865 0.10471865420231682
1258 -0.03319719715992433 0.07428251346380552 0.003852267846212433
115 0.025500015238205186 -0.24302293078440182 -0.010813095571413254
466 0.15547567538699644 0.13214304059261625 -0.09049664724679769
114 0.057657855653843376 -0.054866633894868864 0.032812467159999636
113 -0.07072719084897215 -0.04701395784297641 -0.02932396748835803
112 -0.04520698434232952 0.00717424109163492 -0.2320105683818243
117 -0.057805650752896294 -0.08922535069145758 -0.05523082621972239
207 0.03907481184561974 0.056256420680617515 0.0037974241288504587
1065 0.02718588664826032 -0.0029355839606280665 0.12203527009783073
11 0.08194497703034434 -0.06291356864513473 0.09130618399694207
116 -0.10120625511573908 0.0673529419627241 0.016585687664140574
119 -0.04805790892601903 -0.016597060915196783 -0.12785939683210773
5 0.007492753780011201 -0.16081126964410972 0.11217864057880154
10 0.04243578811256269 0.18464316046821483 0.028042076868335326
6 -0.029835277366218424 -0.15248190741947618 -0.08393552152289717
13 -0.12166515820482125 -0.09044874208836311 -0.07310834232529319
35 -0.01758889452442436 0.06743324263308419 0.014252567104513532
125 0.06716510729042757 -0.04375411529548098 0.057731588810013224
120 -0.06545551999671934 0.03218459769401219 -0.056992786422808826
38 0.023334651305756307 0.17846094553575495 0.05247094263947419
7 -0.2722259773199139 0.05074280257901628 -0.38011219121298556
16 -0.1624488106409958 -0.10579299030193301 -0.13461867852048898
413 0.05512493224139856 0.0719945249719253 0.0477930259652152
36 -0.03036176879909276 0.04814347888860272 0.10459377861367572
31 -0.08945505605182649 -0.001838050671788105 -0.04638095299235131
33 0.0702679759632167 0.025355513810529685 0.0713656644730159
32 0.12408653908013463 0.13583375959642316 0.19705692508810638
34 -0.08830037660206146 -0.014125997255885439 -0.006544574081875561
15 0.08038367820214372 -0.02252497896528357 -0.008012677026242521
29 0.03115808628072627 0.06298308828682872 -0.0978452977428783
17 -0.011609160771189186 0.042802485348398873 0.04250041127455095
25 0.06118288038966099 0.021446887541175498 -0.020918337090661737
23 0.06193149580032929 -0.00454873817615167 0.27192761547658095
1397 0.006891951621429226 0.16764345605548364 -0.11550284655050616
629 0.15920642060465262 -0.016629214525780044 -0.11523519524163225
28 0.08282885310206045 0.1428638197291893 -0.09838675658425186
27 -0.018510635987769617 -0.07639174500943219 0.10819189839716487
642 0.19534409716795298 -0.035345848752953685 0.14664138345310035
26 -0.036709906661392636 -0.009285091040412287 -0.04134655965872179
651 -0.080538978575831 0.02076252613280223 -0.13042331187625958
613 0.22601446996220143 -0.0882851091033045 0.01256486992214123
244 0.00211771454474575 -0.04590295464543616 -0.09752714152061585
1245 0.09456606184142521 -0.0660246029874985 -0.1387641087853874
1209 0.09014718463277613 -0.0077567683793494345 0.13435538430015306
1456 -0.009530513664836267 -0.10691200027995526 -0.12735252536519848
1203 -0.03999484135077948 0.011740070224268085 -0.004071825283163671
1115 0.04823012568421276 -0.1950625526423424 -0.08097259091326112
518 -0.017452440544245013 -0.015007458372199155 -0.13404698438466833
1206 0.01193482048675425 -0.0056585477966975255 -0.10278461860339266
1557 0.03740556710465427 -0.02358685410461748 0.0188464043701714
1095 0.0729192235024069 -0.23531254327599355 -0.02864551687461434
1257 -0.007210364923695529 0.015488119693603291 -0.06781000123670618
1513 0.08224902872295897 -0.004117124733899212 0.023349313779346653
1572 0.13654483142374965 -0.01876801655834916 -0.038499618930507004
624 -0.17496391158612848 0.10294293086606437 -0.10337698081609162
1323 0.01962281960460253 0.1071857189351463 0.003596282058245536
1393 0.056900621538276526 -0.014953881411011899 -0.01182561126941662
1319 0.27028522310319936 0.01973289940877221 -0.028417413715945715
1216 0.07633191313928843 0.2183523025554307 -0.10586943046759353
464 -0.023592004509350766 -0.0016189321352523172 -0.10977679101429835
1241 -0.06506517020810873 -0.0771243653725822 0.04105676486026618
489 0.12421438832470626 0.0483169924247769 0.06281941581276347
1149 -0.021553807866462313 0.15489023755193465 -0.05598293611726401
1081 -0.02323278794462095 -0.016806967494364687 0.054628393229060324
1255 -0.03241429260781516 -0.1087595060716002 -0.051300349837800255
1116 -0.07127258291383855 0.05287802175101156 -0.10846634221164891
1220 -0.06899138706852678 0.07346823847834062 0.05538920105663745
1142 0.1145253382075691 0.02914422810542694 -0.07956671271026067
1298 -0.15175661698460086 0.04822276286083872 -0.02149685134723899
1093 0.022662574020378735 0.01822770562379706 -0.04296501747966119
607 -0.107355536758507 -0.013797138563393336 0.04443951658938372
513 -0.09231315882303832 -0.04477188798411402 -0.1907258313319286
1287 -0.03804329525662151 -0.048568130189199886 0.06686956681901848
587 0.20765176122806164 0.16667782018262545 -0.060935515820036354
1671 -0.05888538716873079 0.00268012709420503 -0.0141362712351106
1045 0.09165300925894022 0.02781088995854205 0.06857445042697494
1155 -0.15455273649501822 0.08882935440340475 -0.05425798021063918
1218 0.034626405056788254 0.04358991585852073 0.08931501032352243
1123 -0.08958133738979142 -0.006365279229027639 -0.12205534902743838
1105 -0.08720376937585968 -0.16526326803343783 -0.007337224964471298
1041 0.037139324181838615 -0.07174220451767738 0.03536383837847399
1146 -0.16060508140154992 0.08737137415273315 0.10952253236301367
1109 -0.01607436726671823 0.13142717351761712 0.09311487152608443
1648 -0.10980553749642749 0.2329105430661395 0.16972284813786112
1219 0.08330131699778363 -0.10696037782049457 -0.08956624470042689
1347 -0.12236443591037592 0.12114142186777081 0.2007405787874547
617 0.07101031480466152 -0.017144527552411682 -0.0779314868599432
1066 0.03146810977077721 -0.023545167448728914 0.1822505323397698
488 -0.0014521876202667344 0.09494219283194484 0.0007536992485276204
1165 -0.009204980625487823 -0.10269436377578274 -0.007773584614945607
1293 -0.028354217755046297 0.024646544850901272 0.10009112334756766
631 -0.08159994591315604 -0.08833990310090002 -0.014830288429961008
1390 -0.21720989734431057 0.11124095492366351 -0.054982633023426056
3 -0.18086480600588992 0.01687768962251122 0.09662275472978551
1046 -0.1091930544965322 0.12150359517278815 -0.016970726538642712
1144 -0.10036600127454977 -0.09228059155054533 0.09377764441097104
1180 0.14202939357825442 0.09126712402135381 0.06570535651042053
1215 0.2524158296913461 -0.15642047430208394 0.02880970667418324
1404 -0.13949009996434786 -0.047686013697558864 -0.06865697310965169
1166 0.1340653070027676 -0.20217618487809944 -0.018721967250594027
1160 0.020643197975631876 -0.016060513145363886 -0.025381615393647312
1380 0.06624311020950091 0.16637259964123036 -0.030819964735778395
1201 -0.05062017640107227 0.18398260518504964 -0.03710711174979502
1039 -0.08362314267373935 -0.1041462041294154 -0.18965322730560974
1359 -0.08398995228970696 0.015687507079390633 0.060430921289212056
1353 0.10153601324935367 -0.017913195216493438 0.12666382646512217
1337 0.13387848299175734 0.020945228619744852 -0.06381150057301593
1096 0.017269171372264493 0.050200522700011914 0.0012827110670178832
12210 0.015259532812865195 -0.07995297710244886 -0.022228111004247188
1530 0.144742472130011 -0.09165660714214773 -0.04515278183181906
1238 -0.051861423887429633 0.02653529820780895 0.030598567003724098
1473 -0.02546297405192212 -0.14925911510066542 -0.05455265843758149
1250 -0.12653126302086856 0.05980826234847534 0.10541925118617367
1089 0.15160076019431518 -0.012825912093033333 -0.09244417794049412
1425 -0.013385322532302303 -0.056012896337216775 0.021915023436170054
1124 -0.07191454210361983 -0.021201537826787326 0.043757481438533974
1158 -0.24073300192432065 -0.10385577262132906 -0.10322762251966258
1340 0.14623061052597855 -0.051936093218204846 -0.028933136613562522
1279 0.05663575748096884 0.03622785946972759 -0.09006700687303172
1038 0.016024232588367892 0.0016364590118713059 0.07170269923506734
1044 0.0715938849513266 0.06864498806191252 -0.04726169535421934
1624 -0.07941414234285295 0.055062856007411745 -0.08998749450986324
1326 0.07579896006496945 0.044147280398531816 -0.0261306330080741
1597 -0.06144117454314297 -0.07724917639545537 0.0956344790439855
1154 0.016852558952024806 0.1066564997215767 -0.07278020374743316
13542 0.06279696105119686 0.07035760381285586 -0.042158543790669405
1112 -0.1485191565722268 -0.04210759389431889 0.05599032328547561
142 0.05305699557773057 -0.09378772765905494 0.08712333639210806
1234 -0.10082883631985301 -0.0009763528218181376 -0.02968651927372741
1224 0.02698961469101324 -0.10179024694287488 0.0434228738414912
1067 0.037480767889760146 -0.2215186958553957 -0.0033319231256512746
565 0.05740395960045616 0.012681018901533062 -0.06008993692256949
1070 0.08781784225212706 0.022755123151402573 0.03238626959830575
1168 -0.07248113134613575 0.07834489494380449 0.10514344457355332
1231 0.10167702473085674 0.13933596362429418 0.036915130821412956
1270 0.06914047672021602 0.0670169615613621 -0.12688122765216586
1410 -0.0744315281676161 -0.13053725805166094 -0.1022751054861223
1174 0.03623803892346754 0.051862614912511956 -0.06974954047670956
1304 -0.0313136001349779 0.019731816018196763 -0.1431050485261695
1365 -0.11380298008008433 -0.09611196959675285 -0.05399415521998703
1398 -0.11796702724854288 -0.10416369881854938 -0.10251299626230986
1637 0.12746868730529756 -0.3064303961602741 -0.022560034644182353
1091 -0.003314987761705652 0.098388998380862 -0.016231200214363046
1190 0.09617519704178076 0.09716779200218248 -0.07943833797433121
1043 0.06896100330647889 0.03485718306127991 -0.06529445189694992
1087 0.0862209294370862 0.0021783160137205104 -0.03645426662228696
1110 -0.014068478372517262 0.14194114111460582 0.037397461116809125
1222 0.05553902058233538 0.051775603959764285 0.04772173694165806
1138 0.03252257934007227 0.0386928531000957 0.2839142650095066
1211 0.04058916838725359 0.1150183097113215 -0.05689606286889643
1214 0.08685141505877793 0.13956342439289132 -0.004486651540385175
1064 -0.09310716753030435 0.07154874426841017 0.050427120164892945
1382 -0.10101044118666706 0.003910112808020196 -0.01679468183518028
1344 0.02285845359416863 -0.06480180151956251 0.0204915790396965
1315 -0.04059483465836187 -0.013565263340055759 0.10565481989504745
1104 -0.024537788524204053 0.008804575832836194 0.046303756444596056
2463 -0.009701570878164995 0.16606696093628526 -0.002751691282000833
1085 0.01575195867438151 0.17736716028914376 0.059078088963122416
1100 0.06867359085369411 -0.10277051708589856 -0.060380801983680045
1053 -0.04257196846341277 -0.043287267297647994 -0.07862898616204941
1204 0.06091257255832977 -0.07722460751445401 0.0028245795372985995
1103 0.05836617186923031 0.020196979841118852 -0.12093468611296826
1049 -0.06806604935172729 0.17970387552832257 0.0688532645160988
1253 -0.05978131824736324 -0.021097101894941513 0.04861622196996914
448 -0.011747540610855256 -0.061417807212823874 -0.08711316721028059
1084 -0.0434599832944786 0.2206641391613218 -0.12493903081564235
1172 0.0019313622722835298 0.002366947954151136 -0.025381447244345247
1242 0.1301499206222384 0.1470674383548287 0.12028076607536702
1297 0.018365650104296 0.014675502822062697 -0.07887417124608978
1328 0.11115016101188903 -0.028985642721453368 -0.09329130467938845
1371 0.037140818503422615 0.08150029942390999 0.24713853971159488
1230 -0.022813559572374666 0.09570078384630804 -0.14586911627528504
1510 0.12123814784973685 0.06377496261985985 -0.09965690582209186
9700 -0.04288799124286899 0.24604388680730316 0.2166496340027743
12020 0.09497044055655393 -0.1347232705115031 0.021419918415335304
1502 0.03588761493006665 0.06813109912284875 0.08853911698439555
890 0.0929596610300714 0.1316221566489241 -0.038165871091261516
316 0.08952446166634873 -0.14172453671831978 -0.18314256592858624
1521 -0.007479035093149336 -0.14233051241429728 -0.0367610697646681
772 0.025605968251357043 -0.10541377750197103 0.07990064994175336
444 0.02520303308527999 0.055003766493751105 0.01151697689361127
1076 -0.028671176625755395 0.0054539307420230256 -0.09752184429363586
537 -0.03587548045122184 -0.04335503209547574 0.04093152846135268
9455 -0.03377348649971873 -0.07328950378099532 -0.03582826878401242
1387 -0.00013567000457454133 0.07343696527986568 0.005019993469136442
628 -0.06864301157143769 -0.01464198724356113 0.009063363581141251
807 -0.03999009691508262 -0.029444788718032407 0.10336609951554782
259 -0.0013084126361453934 -0.022162771697423863 -0.10511130573206581
367 -0.07997854568916096 0.16918137694680638 -0.007323144556109391
468 0.02623542251713428 0.02931745902664096 0.013723634161922063
1101 0.04115436409808387 -0.00137812091607201 0.032751726387067734
1662 0.22453179610953355 0.07596777245304605 -0.01224509816191056
432 0.07495596606194899 -0.02560442812660418 0.158768794511895
1120 -0.007117968723277818 0.10130825290847949 0.025785724323521806
1128 -0.04753158561437553 0.05019122558876646 -0.07364125167863904
393 0.1076301447581574 0.05701592579359356 0.06319564096930771
1343 -0.1505923148038276 -0.10822647546451515 0.008830107457008086
291 -0.19537531591787474 0.052575372741435304 -0.003986531007442015
1189 0.05724476720541119 -0.03621950633850864 -0.01025433000490457
679 0.13176435723831326 0.045298220009126595 0.021588586595123478
1577 -0.1201808973674971 -0.14087158727122254 0.0006863681716597644
1357 -0.1246043621934875 -0.11765198934188918 -0.09314470306842734
1352 -0.05092496967748035 -0.056560199157085204 0.01998959271924772
517 0.12837539982672255 0.10152606446486402 -0.11555633230781415
1391 -0.0055504375294002685 -0.08103548168419425 0.1338398555576789
1140 -0.09935849096532504 -0.11152759782641655 -0.05767673913308415
189 -0.0397913371836021 -0.0053712758034839755 0.058689311276880096
1263 -0.004810117494968239 0.1280913307894709 0.05776319184712591
429 -0.15212797320425142 0.02228986487964095 0.23464931848899395
1191 -0.05745096598003746 0.05127412376394992 0.11572408654857896
1111 -0.07517357673347087 -0.08723348930691593 0.07092654418909161
1134 0.02550030520793274 -0.025986019225190622 0.20955798396771122
141 0.0780203301924573 0.044250518774539865 0.031696704806141784
1181 -0.005224635203188963 0.11589872163024943 0.14533806762914642
389 -0.05123298530708575 -0.024650856017827266 0.04565954665417329
1273 0.03483073429688459 0.06121857463864455 0.11549760314880408
1264 -0.03518313413693209 -0.004431795176067189 -0.0523492911574874
567 0.03467693464205761 -0.05237012452480531 0.041069176931160925
598 -0.021849849504953535 -0.00039295291346110733 0.005669311056542821
1291 -0.09663001228711496 0.02620046389805918 -0.01279059734497012
1057 -0.02459281123098182 0.03540622496917105 0.05557310699636303
333 -0.1052917843251571 -0.03820354205425457 0.07670958644580295
1114 0.08405216536333071 -0.08679938560365556 0.016336637940034184
1054 0.09796451705243503 -0.0019144431133048569 0.19571317627665744
1080 0.01530626443764637 -0.012537292344375763 -0.15576554967132503
1239 0.08398696520017174 0.006688845949162133 0.11048963202361788
409 0.025311636840727923 0.17128157953949555 0.08698117634257252
1373 0.15934466583992687 0.05813225851361442 -0.07829621495187093
1378 0.04505730963994276 0.1011164887751901 0.013680975617245267
1288 0.06989029002885233 -0.08927878579758684 0.03828750605826393
1320 0.08362876552830714 0.0872093815358158 0.1575862788995094
1280 0.10584469428718744 -0.017948293741056373 -0.013037845312188722
499 -0.012132334716995706 -0.008980821934976893 -0.14216067446202596
1406 0.03171901503201232 0.05973942803657289 -0.04473717841175628
857 0.022932474294743543 0.07316339551557854 0.09437687782891997
1129 -0.009767324115297717 -0.062025196168603934 -0.08322043219384095
270 -0.08903051923061223 0.050283898642737294 0.07419052304473411
1050 0.04102236333963377 -0.11198087941285943 0.10872360539501161
278 -0.0030472203115266463 -0.021011884218960643 0.024448686692998392
176 -0.14625209943036319 0.034195834685048526 0.12264425107345674
233 -0.007960571050428994 0.06182790725717478 -0.029574660430926124
310 0.022360896581010464 -0.009498256338507656 0.11821977364899046
1396 0.009666815135045703 -0.15755578630433917 -0.008259161512933114
606 -0.1355714561391116 0.16214165459588167 0.07515083385510356
1290 0.03707728161447407 0.03864043253079365 -0.03139879056784557
947 -0.13682837830110997 -0.058876364500571515 -0.07782209521364251
1405 -0.051598931882591105 0.09577567399062745 -0.049234557781790686
556 -0.08739100755273405 -0.008521096437292201 -0.0661436496606647
302 -0.0273387230052984 -0.012176868106032752 -0.06726353734941254
719 -0.14101459091882682 -0.09085853396536883 0.04391183913902357
1501 -0.08971455197169872 0.137330712120597 -0.20266484215032654
739 0.10661829942708737 0.10361274904207424 0.17368152287731178
1176 0.09814131052214888 0.12709349325848748 0.1090152261220504
1175 0.1382052948295979 -0.12163859887285643 0.26696878646221106
788 0.15143810123699333 -0.12220629510280369 0.06438048780220525
1414 0.0864324307563433 0.05871911944850343 0.05738470922092808
730 -0.012950995330495757 -0.17093599531176631 0.06643280313633934
870 0.0374219092690238 0.16308833148369872 0.006897734078597222
449 -0.013088089298291174 -0.037397268021179486 0.04541073393076725
965 -0.026589339291491182 -0.03387086159660099 0.18881876755254381
1599 -0.010633228959718098 -0.052505182196013835 -0.13882931411574737
828 -0.058921709603833784 -0.13296537650220358 0.017447575122917575
891 0.0609120005503627 0.0009175380564152413 0.062458425905726145
1440 -0.15349661834496212 0.16367717365463438 0.1804230026461851
767 0.2038938225416557 0.014182731935329214 -0.0032589058974642274
888 0.04805723182410696 0.16000134138269742 -0.12493674800230568
12469 -0.036423675911322693 0.1318796103704337 0.005668792365008913
1463 0.12218562359258175 0.01030494312484971 0.02954635244335702
1638 0.10845094115492354 -0.2803458222170364 -0.02865383592500663
774 0.11348577508803094 0.011966997892815478 0.007209910482411299
827 -0.15115328931213542 0.07358874310875735 -0.04428621751914723
880 0.03463921841429938 0.013887832952465288 0.20608284530477874
784 -0.04875542419778057 -0.06581453762798549 0.0303769677751234
922 -0.20894946588956345 0.11070074474079375 0.14419432055468337
704 0.03450675545547743 0.0633741648614752 -0.013970282494008116
737 0.01619228411691705 -0.061016488606461965 0.06389408530237072
975 -0.047681549420421916 0.0563362464889576 -0.038352675359422564
833 -0.02390367840796626 0.005438013720730243 -0.1356185661855793
972 0.06560098397498518 0.1103855000996465 -0.01738409784435798
1461 0.06844126610565768 0.10791335476435998 0.08986190705518081
847 0.00960314594459339 -0.008790667485286832 0.13462502062864568
2504 0.017899289961281185 0.13670477658851432 -0.10113730210690416
1420 -0.03243723158379799 -0.10369185061297775 -0.05135287075297659
884 -0.03737641560645872 0.040288223147202123 0.05052958587253231
265 0.07134961308456511 0.059372525803009696 0.07827467350572871
753 0.0473132131702298 -0.07060521925621918 -0.10232765086355161
723 -0.10859519158545156 0.09802648703220798 0.05549224535209789
786 -0.06270390026246976 0.058003420388032995 -0.030776244678857093
724 0.0447266833343564 0.055968403116555626 -0.14407460759441165
856 -0.024852988545109853 0.04294712654057483 -0.11323352660987375
752 0.06912466283514881 -0.10798598427161413 -0.07084628498810018
1027 0.15190171593996185 -0.07888621794314976 -0.004473252374319704
754 -0.014861823692452203 -0.15154715218592987 0.014504215486915136
2573 -0.10952320815496104 0.06756810494986303 -0.03032832087956179
1017 0.20420444655055522 -0.07460250154886931 -0.11979550886065618
926 0.052345609995287215 0.022498144702533016 0.03885747657611366
1028 -0.1872698389271693 -0.10828894265411088 -0.03097046095919262
1060 0.002987926135811529 0.15524274696129114 -0.007663575798049618
431 0.1417798523908066 -0.07859434653979464 -0.034879866722012064
443 -0.12564300605383838 -0.07717556808147513 0.029634159165011373
178 -0.03836824227994188 -0.10366857030021387 0.11209420781670357
197 0.04343091216142171 0.08240767178869686 -0.09639929943656916
328 0.010274268095294532 -0.007242451484967952 -0.019102783863972385
465 0.13716068869882367 -0.1270611673186799 -0.04095139270128134
182 0.09932853017165515 0.21523247691922803 0.06354137110652393
309 -0.1263360960160967 -0.217288447156901 0.039215022415045125
1025 0.07146385425103821 -0.08537673231009381 0.005683925908283031
326 -0.05611972794453446 0.06811667636529599 0.09483202944353987
347 0.03497528424655588 -0.013346968420007993 -0.019929538935828158
1644 -0.11836693413680001 0.10232170792297755 -0.10544401784793433
568 -0.057202700228982495 0.11769498848429719 0.02021889531556324
918 -0.2221239295660085 -0.014554798119922526 -0.002298615059585594
987 0.045145786788173325 -0.16585868949964874 -0.18149173422420667
561 -0.12367444405820377 0.008216896951367712 0.04460063701628265
483 -0.08160622410098634 0.1059630439278052 0.041136103062177826
773 -0.02940566590991194 -0.09218572572331395 -0.07709195112247465
221 0.12001314406322044 0.0030146911326757453 -0.048613618381550545
418 0.11164202458608319 -0.03317842748812125 0.12252339457619109
245 0.05863445695341943 -0.03912079304018713 0.004455195288383475
794 -0.026927358185940883 -0.164323012936108 0.00850493394716997
801 -0.09353736429299189 0.16699413470885038 0.07581018865368526
711 -0.01824327754127378 -0.019944553829485637 0.03948679219459244
733 0.11342391242475304 0.07425962839763173 -0.07392513147927489
889 -0.07557106271495884 -0.04033899242899691 -0.1409276547905922
760 0.06553023644360396 0.07413099889088745 0.10189961663827833
887 0.045033107506288035 -0.13382322765794125 -0.03265724148478112
846 -0.026471969862403605 -0.01529388063540495 -0.08745891798543967
1664 -0.17631059889454925 -0.23596129196222312 -0.21027996419022865
960 -0.05025221574134685 0.052764308243290856 -0.08572405661704963
622 -0.013102742230872998 0.054748834047374836 0.009858668364970069
1031 -0.08825440468060822 0.007625120080625859 0.1534907017256606
971 -0.04953078086721595 0.056038128025771086 0.15007516853557967
951 0.01934668163356268 0.13002580171554493 -0.07582026613843698
783 0.0038871513527674872 -0.017130094225649206 -0.06094727104952823
1646 0.11181376373378499 -0.12643344522479405 0.07954506137516526
866 -0.0626415162536525 -0.07521679211942038 -0.09650175986553894
768 0.11773898130236034 0.0017428953319810533 0.0007317192112333212
861 0.06308828077057203 -0.08098458916496473 -0.06576265508349068
872 -0.03371882223432432 0.061563479136735294 0.11365025592717035
851 0.04331302410592149 0.01676233419122155 0.0016228180103799242
707 -0.04239356746562447 0.04385394673514053 -0.06028529104070416
817 -0.009602654081924877 -0.033163535003668 0.06669085065387573
493 -0.10097590183185466 0.13724857510357205 0.007737823987910487
738 -0.13931591714938027 0.08530552045766249 0.20885722091845801
928 -0.07800413158043921 0.2096973280144894 -0.20142837058920984
936 0.15010899298200095 0.03809288261581334 0.027904122938366006
902 0.08666366663088242 -0.00257171851483428 0.09492010168423065
680 0.13562295068037675 -0.07942266765866508 0.005310165184122549
813 0.0747674390640741 -0.10853052937795067 0.13703478694693666
714 -0.019246138904556214 -0.05025584486815295 -0.04718647306175777
698 -0.11137795647954596 0.10766395642105887 0.021932243300953926
390 -0.16064876342072662 -0.037161139365427295 0.04599049852768139
859 0.046949532562590296 0.09640461765941674 -0.104319605037211
778 -0.023933096598012897 -0.01607428810695893 0.011835315835589014
709 0.08813997869185133 0.045949510874830866 0.07245945763276108
749 -0.017052777071239113 0.0018375175903831004 0.017589741786112105
1545 0.04744537336527036 -0.02307329125584987 0.03195525814615337
825 0.04528872413515324 -0.019333322234913606 -0.024563192963922263
597 -0.059164747192573704 0.02619488072473638 0.016101602338168777
445 -0.05302261565087766 0.08311108527158323 -0.015009064889767635
500 -0.005152434784704955 0.13619757808587404 -0.0673982937489101
921 0.021408456144156884 -0.004275745122787247 -0.04281792947816308
914 -0.02443356772989517 0.2018210324645142 0.08408372428126999
1003 -0.12321234889467596 0.1620853183212476 -0.038619413291427554
1012 -0.11884929764559514 0.06630351848915192 0.030530931679376434
404 -0.012131665731375862 0.06070440756474742 -0.09119184975231118
234 0.030930393957959164 -0.08147276335645774 0.07242907062250498
852 0.0782892891375343 0.031114991149624224 0.12506366893538445
269 0.026943543445202132 -0.046269136878309504 -0.0425213191267165
94 0.07873688863532541 0.18722185360115715 0.031987040745360414
442 -0.04399112360841187 -0.10066666328553658 0.056664202152629066
224 -0.020960884120419424 -0.0643431464679888 0.01581870048176493
373 0.038961167177338774 -0.0472019781432192 0.08212158984619602
1642 0.007466116438710466 0.07633143755580982 0.07367279845132396
321 0.021821600929181593 -0.021307935831223115 0.010598613751737608
1659 0.09148843982408024 0.05318557740375876 -0.05741632807784544
232 -0.003442026879199738 0.07346758634490624 -0.09383674277495753
853 -0.027696201480206982 -0.0005689527938417148 0.0011127153415674239
91 0.03125686122216195 0.15377479081435785 0.012616100845739367
194 0.028959401734348158 -0.07107156488357026 0.09484607940627962
931 0.04588492347069284 0.10507972231744697 -0.0003898688307750909
657 -0.014757884567052147 -0.06400355442449887 0.053936861192520856
501 0.06597273021609758 -0.252553248680837 0.03722976098134075
745 0.20125273321860687 -0.011815484001753737 0.07664390373830918
430 0.0070222447614499695 0.05246859816921195 0.1354100485068191
793 -0.10235386115249234 0.09361952666880392 -0.0016957056218674868
284 -0.005066793834598666 -0.020626533968835053 0.017105572694837923
873 0.04823947971333439 -0.1445886713470029 -0.1599621478210174
458 0.06218578759844988 -0.08575577684575722 -0.12060501752533098
1651 0.08364790013841492 0.09029647468823762 -0.052332512579164964
763 0.06245707002404037 0.07605672347880338 -0.004807310390014072
874 -0.07596520711918994 0.1551809071424321 -0.10414581458559374
716 0.0804922734141008 0.017251490882531747 0.06907036438926198
341 -0.07855875872511384 0.038374402375040584 -0.09621951806666658
769 -0.15914472868888946 -0.07938014093841633 -0.027704106774196602
691 -0.03520491325936185 -0.00022486160993157034 0.04028913741528183
740 0.04559915713553872 0.12886756012040473 -0.26186182334539637
748 -0.03044538734901059 0.14838257598480548 0.00024438371060652234
1657 0.1414937267777333 0.1544198970082355 0.20516083881150238
933 0.013440612490381755 -0.09171634662508624 0.051435103919535465
1019 -0.1218363288808951 -0.04322584143836377 -0.07644255805504696
1024 0.052276317853194 0.15486132069653036 -0.01696149044230347
729 -0.059360442436108635 -0.0738944039905929 0.040383259395780774
823 0.10408064170126832 0.0427115389000897 0.027794614643508613
257 0.04200176564321667 0.167502392355741 0.000698758136201072
10284 -0.04280128747123329 0.09929898888564215 -0.1452651022711118
835 -0.09496509935510467 -0.08105407839703639 -0.015455837659015752
858 0.12204494013135467 0.05613354237983301 0.019128963374303608
685 -0.06214615053327092 -0.08359678510323998 0.002309641348542321
751 -0.14391080814734084 0.11160996074000926 0.042167933901594526
780 -0.17333774345771372 0.08580809055336328 0.06532091451004024
294 -0.13766410760754236 0.21064029101835732 -0.11017083787952267
855 0.02943392129158854 0.2149805976753334 0.14005367104917077
809 -0.2707871941738278 -0.03896390000626556 -0.00997201766682564
941 -0.025104317097662743 -0.11645878521503124 -0.11741941294727466
756 0.18245919778243633 0.18058284086717583 -0.012467148917207158
514 -0.020426070168485022 0.002831851985652306 -0.08912779028176211
824 0.02118709811140752 -0.005025194467684628 0.005398111534878551
834 -0.1582122022379672 -0.07054913466690726 -0.05121511446715367
863 0.12947450278043235 -0.1470887330049801 0.03224200906228215
693 0.047392610698801865 -0.16388155958054834 -0.007018972544611292
219 -0.068117210473675 0.07403891445823463 0.036325320520271064
822 0.1354971380633852 0.10259451078802777 0.013791277763498606
997 0.000913428131761318 0.008575196845844018 -0.12507260067208242
713 -0.13256035981739844 -0.01273468456635994 -0.1471482970183653
555 0.02334582818019425 -0.027151422378811237 -0.029195987018236592
781 0.2074012184173068 0.023460937911835237 0.048234574327586405
187 -0.010815133899167075 0.02646459480406233 -0.15167410281058313
761 0.02759291572293443 0.0008070556631584649 -0.18831923495749406
986 -0.19325588639215266 0.020041076895584972 0.019000072147790075
1658 0.19422100266292117 0.20921630671725697 -0.15128116512176165
1004 -0.023026778480685246 -0.0757473648658981 0.02524550563827612
524 -0.03655008550469314 0.044686778345174046 0.03551060253531013
576 -0.05673202454226303 0.06879963042541128 0.09372706342181034
4223 0.04290296179658354 -0.039627630842046485 -0.06854032755857199
168 -0.020228791534926932 -0.08850737334399446 0.07117422381019138
47 0.11346552530243065 -0.027510694960355145 -0.036039786353780856
401 0.07757975137969776 0.047015488837225575 -0.05504539592107062
255 0.09390906255423731 0.07334676989698187 0.0030840165811372514
49 -0.08505587933488076 -0.010251507451653034 -0.154664186914139
283 -0.16818627708469572 -0.04722818125118873 -0.06537917505799994
52 -0.13508454706256334 0.04371089323457543 -0.2090426746391621
101 -0.039435288996893345 0.060927606171898914 0.10825845074044352
332 -0.05066189822037613 -0.1904943552516854 -0.009315257493530096
9 0.013888138019724494 -0.018677136118866997 -0.1459319222186745
331 -0.011716088172091304 0.05290663218618217 -0.00689262067017477
60 0.12171299346460121 -0.1388465743311406 0.24107237083376648
53 -0.07147093060250949 0.11098366252176017 -0.12812018330574726
50 -0.053809965536756904 0.030604922763167536 -0.10140035812668828
51 0.022972624128936733 0.14960814270638145 0.0953266622946397
57 0.04675703375009366 -0.07792952834185367 -0.05040457632840893
59 -0.06164294331002844 -0.10259653743771621 0.12572996769443742
251 0.11148816745954437 0.0017445233596010273 -0.007518636279486558
58 0.095007377853281 0.0752313286279772 0.05779002003934927
69 0.00913549149125618 0.0003397304474271265 -0.11967152385658647
97 0.08636622406567859 0.17894592372976026 0.05509966022846447
99 -0.010035958699432218 -0.1293308151410961 0.13396724058660822
68 0.050930663057391065 0.13051067726504081 0.05343615279864849
79 -0.024501523729841962 0.15696396520693087 -0.1986234996717484
96 -0.13308888766641355 -0.014657578725733547 -0.07604097395376366
84 0.03410811047931247 0.0029110947922331345 0.03456439054895687
85 -0.1618935994210801 -0.06910933239980188 0.00832933531654501
1643 -0.20011408944479483 -0.14454584491865324 0.06984241401532171
83 -0.012698224351610207 -0.286559906817889 0.08655148634288029
86 -0.05174148048127721 0.08725336870103509 -0.10538742093843904
89 0.11943581196535144 -0.028185617216936222 0.15592813728666222
88 0.12162076635514107 -0.05597598086428508 -0.012610838336344809
643 0.02892813301700846 -0.17314960677398905 0.13541208787344602
87 -0.0366567098554372 0.04813963146016946 0.055542916222182395
634 0.0917485342695158 -0.16255594819764912 0.1736088778922086
253 0.19245395774119012 -0.038331194444465325 0.020313716302814033
1547 -0.020338947333439272 0.11089248753161399 0.09673367464815963
715 0.004579140459136127 -0.13995197436153212 -0.07441029732843078
766 -0.013322565228719468 -0.025547077230689347 -0.1468184984823855
771 -0.08899662818244858 0.08111165194837121 -0.027148933854201626
252 -0.048092824119095275 0.1020928817966579 0.053184415934998265
728 -0.019802907836024782 -0.007562179816248786 -0.08842759500962405
759 -0.03556125813202599 -0.0808111876599719 -0.051290772732289124
742 -0.04166470080806987 -0.024084532238359897 -0.01923385647402201
797 0.1055470702948563 -0.020898927800750467 0.07122749879670026
799 0.07700505546356291 -0.031072017258199656 -0.1510268808866228
703 0.02893542844556423 -0.050955073427508046 0.08965703734654676
1584 0.056508679731409286 0.1119574347665815 0.057263206143453343
905 0.058391339677973296 0.1828909231738034 0.07732823682563235
970 0.003536096137314905 -0.0418515457252821 0.02545266814771327
907 0.07477296387154586 -0.016527939111599638 0.03212278790854928
875 -0.09983851666686827 0.008915948331164172 -0.174311410997488
819 0.009746140562857525 0.2043898299673125 -0.10403709104019446
1669 0.14045215784975196 -0.026564563250835664 0.09951608585622174
758 0.1306887089698288 -0.12067317691787091 -0.01713090923828335
802 -0.01933736440255846 0.017420519530488385 -0.044329839013475425
1034 0.09334673479939595 0.07313202433287874 -0.05380630430789359
1655 0.010861323888051815 -0.07161077683265754 0.047809221177312386
879 -0.030016801656877035 0.038084055068425125 0.07082935835649834
911 0.023659916011269707 -0.019791513243738134 0.10286071783907288
908 0.057702666404550476 0.20549170163062772 0.02180359769542369
849 -0.01827544230662485 0.04921022702645307 -0.024393038382739346
696 -0.10739023460281961 -0.13599092136686813 0.149162142697277
1636 -0.10967719403823123 0.010642865370123423 -0.08374166213810397
945 0.18336640866869683 -0.0999977820187008 -0.12557827000572622
1002 -0.08934101334167495 0.029161955847711783 0.11977957128385328
994 -0.03691338300382352 0.08618948640592197 0.051748804488882534
930 0.19643083284173304 0.058795654143126985 0.06381239483430935
1656 0.10681304829810044 0.12830524368874063 -0.04306892155732038
10624 -0.013144331045154677 -0.009423640381659111 -0.10646143737792248
776 0.020452062839336864 0.1390301033260446 0.06663726999633554
821 -0.034730822885278324 0.072962602500769 0.0016792970386623075
832 0.0673986357263082 0.05554592067014051 -0.013756622776507766
201 0.03516156271828909 0.030224862175571743 -0.14647330091885458
775 -0.10023430613238088 0.14670102107519303 -0.0019412512813866308
228 0.007540417960808103 -0.008139852721876348 -0.13830040670175425
743 0.03020312987508187 -0.0689911384479629 0.06981804752787868
734 -0.02904218804799045 -0.1006774166313012 0.13261879231167734
306 -0.0819240664346746 0.024360599461537263 -0.13016117440408587
705 -0.04268627249592451 0.1295059185760403 0.005837191901748109
1489 0.08948089341684246 0.041722947619514464 0.007451412445769794
978 0.03621033923404002 -0.18272397962778475 -0.12368814260904308
953 0.0073362085943012734 0.12637880037706983 0.037113018138510256
644 -0.14315883170761184 0.02755069666129657 -0.15552803769482082
966 0.036681086802745 -0.08148145948126809 0.07314952001187604
946 -0.027963432188153954 0.05807510361977427 0.05662818829810845
43 0.018173237315208604 0.2951141998604222 0.11045016610774573
45 -0.006994243190904401 -0.08832548032836973 -0.11505197337064445
46 0.036836713923806184 -0.2459857666595011 -0.03143622648413783
423 0.09129669018722188 -0.06119160892281584 0.02462066947975222
48 -0.007959430305877715 0.10781360825520801 0.11615292794306893
44 -0.17382503102216373 0.07291371388850067 0.12706642174227728
406 0.024650526158144566 0.019644156914536692 -0.11331232465464527
818 0.09407497508832091 -0.08320357511602293 -0.04834479803757449
731 0.18667413904381408 0.03297734605926324 -0.013914025504122317
63 -0.031547445376472236 0.1368722536305879 0.12315351979816686
56 0.10501995990564895 -0.10629776909097154 -0.0804834743812218
12 -0.13279754748617303 -0.038976207791191916 -0.007492790458153507
62 -0.0327005730359096 -0.0946110814443797 -0.04859390381507747
1167 -0.05556277453842352 0.03125078860622868 -0.013692623638818917
65 0.12703059474423786 -0.03833637917270144 -0.020218178500532875
39 0.03724460614413483 0.06776756462455666 -0.11091347114493093
55 -0.03255032884470814 0.07749716410092757 -0.0020159014304571912
54 -0.07008215948568101 0.14153433484299408 -0.02053044951079515
67 0.03622171761012777 0.06555387655992718 -0.17196180962584734
73 0.1416511150368058 0.06916494126488501 0.009714146269621146
75 -0.04424771514020101 -0.04181068639618067 -0.03484377993273716
77 0.14836327588610967 0.025102613938269236 0.27194932195208393
71 -0.11866868006607408 0.0060882204428255315 -0.07274003151284507
76 -0.2438037138223572 0.026322473805616198 -0.23391134836982416
78 0.08525016723388482 -0.02010487136577379 0.009672118755172623
66 0.0663690580399117 -0.1689245805533569 -0.22020376087779425
64 0.029514128275633544 -0.06256532460466953 0.03404099069297277
74 -0.20178411173756847 -0.009603663436674612 -0.044286147776558274
1145 -0.14276169831208765 0.052136478644862164 0.02386445014693877
70 -0.03629772200057911 -0.021486975940693535 -0.12558420576756707
18 -0.17792603863511833 -0.08940688558655609 -0.032516883205386815
82 -0.06915364173199706 -0.1346676674851506 -0.12580963738061984
677 -0.11384008567184067 -0.03145774251451246 0.001877393991203364
81 -0.019329202956346395 0.06556565552717109 0.014745381459812662
72 0.06604572371968327 0.009409972245083557 -0.02463606733226046
906 -0.015379648389138217 -0.0069875855470101795 -0.06196574042644216
8653 -0.09927666751511231 0.17301960306990585 -0.05984637424281181
80 -0.07219361216766934 -0.03834697738906254 -0.03585295051318142
791 0.10566155987218478 -0.2564515924252582 0.15760081562505204
1665 -0.02930135713102646 -0.0685019335469688 -0.06875793126826564
1470 -0.055795449303413416 0.21005372677138573 -0.011505699808857564
869 -0.05804046975827747 -0.18823756091631555 -0.042357797273925295
684 -0.08203713304195653 0.06643479279560317 -0.017705725696125926
736 -0.07564179069293009 0.05028859882583642 -0.10675605687735198
61 0.12114281443899419 -0.08788834683451127 0.01972258422815163
732 0.19879993256693615 0.1714502994027436 0.06482019428739078
792 -0.025314278163296677 -0.12068781191509403 -0.016460774079637246
785 -0.01254428681832482 -0.03986061057568566 -0.0027734047966562203
687 0.1357986791746127 -0.12059045624797032 0.15971635487222194
837 0.008644979274398187 -0.07405624676527559 0.07690590969060428
1504 -0.2545026055277544 0.07276499722290766 0.05233238986133058
812 0.08353832861060732 -0.0281553806281181 0.06705104391781563
996 -0.08061469186561765 -0.08346023804103941 -0.03955515098077626
1592 0.023209368045170993 0.018891183031705214 -0.2194235612997358
1640 0.14687952369120702 -0.06336453019063243 0.07170088194542901
1600 0.07534292653234476 0.09558899444210542 -0.11912964879755814
1026 0.05467856510174425 0.01830206767525846 0.04736382070929401
1480 0.05624533680110587 -0.19716753852122895 -0.04088146247517767
1532 -0.19405096673594996 -0.021040841779384242 0.03444077074469849
820 -0.19404781337512003 -0.2341503525467741 0.13552865540948014
896 0.05726909939317479 -0.08090185247632461 0.1615984299926245
899 0.08941855671283383 -0.08582061241670413 0.15038970284392972
720 0.04612366283168274 0.0236312095993423 -0.047620790269349636
885 -0.06817696322582839 -0.12391857034614544 -0.037815733118162345
1635 -0.13259161794956292 -0.06526493477631091 0.04433442367326392
1566 -0.025487612009386144 -0.12205953657251421 0.06350337380306874
1628 -0.02993072974581678 -0.06393420085415802 -0.004533124642254828
1610 0.11429947773196791 -0.07462112117488172 -0.01643537908016478
570 0.03175946671559794 -0.01336421207804209 -0.17099781876467582
8543 0.11825162434634659 -0.027679729983357135 -0.09507705459681294
1426 1.9086547445573004e-05 0.03349093284092754 0.04532031423667908
1478 0.07006864974356974 0.013291590920734193 0.06015136508784889
815 0.10362764452893823 -0.11480887455757892 0.07571330482848812
1522 0.04487999678541869 0.08194620579563892 0.057211209041206745
1493 0.04094918953516243 0.05342952504825092 -0.13079256536294154
1335 0.16542892032773424 -0.06277369283115283 -0.00982710448629985
917 0.013555347983908856 -0.13361015967183532 -0.09951013401764608
610 -0.0011042588157338558 -0.024691311390818527 -0.011895654185985398
1445 -0.05928221816411382 0.004372433264727627 -0.07744097058661556
1507 -0.06609332891484303 -0.0031692565847344922 0.006621166085576065
475 0.05898361226414897 -0.08187860322728026 0.09998936767408596
1585 0.06693581862532896 0.05832295638912353 -0.1625934940429709
2 0.012067212140535463 0.11174416263426983 0.042063242393175784
1208 0.11821082043787429 -0.006325039215406639 -0.08696071255727127
4 -0.01952645940228569 -0.029905324476383548 0.12817749765216532
42 -0.011928229633309528 -0.051207564767003 0.08546353541983957
1 0.011383252177198499 0.06806318311923992 0.0728207801029484
315 -0.05002891084716475 -0.03251432259035277 -0.10922729402207675
1661 0.265509595515597 0.09968129027235896 0.13829868021826489
1040 0.038743392617255866 -0.08798567269347328 -0.026732873691897967
41 0.14649965068710682 0.0872029495430666 0.007003452949360597
37 -0.07918827469604586 -0.07448001174548259 0.10397684821967537
1259 0.0891678418866907 0.11357364813221162 -0.022652842025783534
1163 -0.07846344390862657 0.09075462068461285 0.11267275463603953
1449 0.0489395530765827 0.12720048724250452 -0.1769899125415803
40 -0.03008075106951056 0.04702070214526952 0.024003823313289374
1177 -0.023485775112351906 0.03616394266075433 0.029152122677486444
1170 0.11538071816830706 -0.04353793595371276 -0.02328421746422785
1182 -0.1244792123137737 0.048775260999016946 0.021010623508914486
1061 0.009952743840680633 -0.04971965049789145 -0.06905148829567609
1542 -0.10528814428099097 -0.09487266920153772 0.12529336741175698
1514 -0.16691713781255793 -0.03234900880661841 -0.10007905279863914
1332 0.06786086664140907 0.06186707153000566 0.0284983398299607
1534 -0.04191935717363408 -0.08142700479064147 0.15239031179606813
1593 0.0830287307985987 -0.11771556688378922 -0.11511230577686747
1388 0.07415336050323082 -0.16838300806039097 0.11104114214404105
777 -0.08660733949433128 0.008461613457456121 0.14833447939551786
397 0.13784478660456545 0.1624767378498685 -0.03496500922485429
1244 0.12379781974522933 0.09452780550224119 0.10363285343393094
1436 -0.06748823352274769 -0.05954561905172951 0.02300690583596947
1536 0.06934332704289312 -0.02807223819315767 0.11420976546685356
1428 -0.1291419968768326 0.036009617007543945 0.13304358465358374
1063 -0.03590065125267655 0.14728662192734895 -0.1069081764654369
1531 -0.0030780078029003016 -0.06510536488433279 0.15981234480013462
1523 -0.008412993469361543 -0.03866193818206509 0.11373344642737593
1516 0.06834394447652459 -0.14971640982822756 0.19426475466511137
1484 0.03616964044259857 -0.05030481625171134 -0.09062537585950636
1477 0.07561424419337004 0.046894179891126146 0.044050948828496216
1579 -0.06905809951040845 -0.2326927561688652 -0.00523372104529177
1006 0.14545130590242486 0.052813974158718316 0.09843876568668848
1518 -0.09645167804497919 0.03215821892132513 0.019592706575396995
1525 -0.14709969029483727 -0.04695174599204631 0.06677097894113306
808 -0.025282889944479102 -0.09609881674835924 -0.0607805754711488
1549 0.0028963216872066877 0.14009249965734108 -0.02788277143544991
1495 0.04903218231361944 -0.051830379833489044 -0.04769993950335439
894 0.002268223915885499 -0.046270661219510185 0.0274160522023984
1544 0.15183964395255042 -0.07531296643318769 0.10777382342860074
1431 0.03626047268979964 -0.19149179768847763 -0.08528395222673088
1443 -0.12689888970923524 -0.05678658863015612 0.019145220494541686
1541 0.12180811920515638 0.08277323408479198 0.005937577635360448
1415 0.05652555706596605 0.07094438257046631 0.042113976972397035
764 -0.07542930160064595 -0.022224038946736406 0.031077042519077544
1441 -0.0071920855694669735 0.0874121806833941 0.2656801626346892
1424 0.1851676118368553 -0.026387627675378424 0.09260560650308627
1630 -0.10850014882541995 -0.2433886907315107 0.0058819612058006315
1528 -0.038904953570086595 -0.013295886010827757 0.18779138188874317
1631 -0.044340123289273954 -0.030991938730440018 -0.15888649990370074
1553 0.08290152926803819 -0.05491844888696444 0.013369142897418728
1621 0.16943613890565307 -0.2356071462120217 -0.14901504472482888
1556 0.043980730932471006 -0.14521173833338252 0.23514423522333444
1581 -0.0073502014433827235 0.12277964831336714 0.06864710762964146
2595 -0.01531867996602363 0.07384173707009734 -0.054660356764805684
1413 -0.0012395413769980199 0.060953468106776904 -0.0980563762302524
213 0.05359817068740872 -0.035914460544483454 -0.15413895154371432
1464 0.0942360503212669 -0.03193831122380954 0.15992059910172027
1232 -0.005788458511059854 -0.17459184991394436 -0.10640794767049579
1455 -0.2080751037072984 0.06582947147763568 -0.0420232377114996
1444 -0.03322547475742619 -0.24206938452167473 -0.01770355204651238
1452 -0.09795155923681606 0.049733484847227366 0.07040444383672058
1497 0.02983796408090294 0.06818200872639649 -0.11204201798029845
1438 0.074989882276595 0.1109995075087479 0.052209250859968775
1613 -0.09952213187515678 0.0471266501905403 0.01789451553801718
1454 -0.05437246865582229 -0.010398752017561592 -0.016255544835756863
1535 -0.051150698023997625 -0.008430533154296285 0.08197924166110637
1568 -0.07245652725882885 0.06255225661395475 0.010263118235628548
1609 -0.09877933898705796 0.14485118023831395 -0.2103747887871194
1192 0.10038989432122411 -0.03172943287390457 -0.09832303707290235
1223 0.09411253062434471 0.015813832753865435 0.14554036684559046
1072 0.10002149144919696 -0.19542965828343262 -0.09469032058781239
1126 0.21402769006820382 0.06623712214576752 -0.05091632458223599
1261 0.024179672163299987 -0.043510177280343794 0.06931180948143928
1498 -0.13989823277093114 0.12562539337276507 0.10325252723230685
1236 0.08804030505814596 -0.10593289321970166 -0.1255557955656745
1266 -0.010393640426873452 -0.05807831556552345 -0.08430739863529643
1450 0.05507069890005875 0.05378618367546538 0.07236016851047844
1107 0.04522035647864451 0.11842153775988662 0.146221702404223
1186 -0.09601667073712784 0.1054164699647797 -0.12453596096498765
1548 0.13787799425560557 0.11442028589237029 0.08224144960451941
1349 0.0666286022844614 -0.049803690968937685 0.18334446833928317
1202 -0.05133675823934421 0.09069538819964863 -0.1052368246006619
1193 -0.03400649065087747 0.0580526759736586 -0.07899663525186237
1289 0.010519705403589897 0.08440657591636172 -0.1510400435239756
1294 -0.07586091889669132 -0.01656092180449307 0.09911575495899223
1299 -0.1742391345366795 -0.07751022501313709 0.005617555057249403
1327 -0.1052054698461355 0.06520721326704923 0.0661982312779969
1506 0.021763931089211225 -0.08867445718382391 0.006267749952314006
1118 -0.1318214165623937 0.18607702778188923 0.03972411356188242
1467 0.028569327079343863 0.012680376401917945 0.058640919338914604
1453 -0.05024527759042535 0.01600849398006301 0.04389710103551728
1430 -0.07434419219372054 0.08106759510138016 0.07838316610960029
1442 -0.006999133721040149 0.06452895670452127 0.09503255789106345
1465 0.0665527609811527 -0.02018832771958673 0.060592264264331286
1082 -0.1105270522344449 -0.09685603440951816 -0.0455172520261192
1338 0.0506641805983754 0.09006006397968096 -0.10084150502173897
1481 0.07443137234271545 -0.02688242170120932 0.020835209463703545
1370 0.0022881974476443613 -0.016721231774486433 -0.10549189533715782
1447 0.07436203296755564 0.02542896463312906 0.12816432319743284
1594 -0.014908301611917849 0.12128015287388641 0.005444336512169946
1395 0.06534420752263198 0.15565747317799042 0.07602566001813862
1460 0.05812545083093437 -0.0020495837462749765 0.1400006818536193
1529 -0.09206439975546547 0.03328003868821712 -0.16174733401465657
7426 -0.04564283524596993 0.0554291471816242 -0.07530593728604267
1519 0.06121418983853933 0.07284345833501038 0.16538462597627396
1437 0.08295334218972822 -0.1858128751498911 0.05017951611654302
1491 -0.12405300413975447 -0.08622748114197064 -0.10217314497165202
800 0.06322178059996687 -0.07790699932786292 -0.010766223368257388
1417 0.04625092627371539 0.034328140371633856 0.04650169237328283
1629 -0.046844989214319295 0.08544359909200903 -0.0508718868345783
1598 0.006319524959717486 0.006014155932404702 -0.008402710237872143
1282 -0.021342563956408364 -0.05088052875820265 -0.1925881117508979
1563 -0.08781944967713123 -0.05571011411828209 0.07490983616041433
1589 0.07004384244318672 -0.013558327064813394 0.06514382580219394
1468 0.038909629719992206 -0.08709616329875075 0.056142491597335996
1457 -0.053066413296712425 -0.08594776302848801 0.022341295796834103
1141 0.037634990201314264 -0.025888758912188295 -0.016496338345915032
1483 0.15002138880446667 0.029063513539110235 0.2016883703247099
1515 -0.0919443507340361 0.03786631273495275 -0.035134109049590065
1432 -0.12461367578137841 0.04268697030789459 -0.016913049702751475
1505 -0.00846230334982569 -0.05178516470413584 0.012715835019247059
1607 0.04411425228049148 -0.12564569840411857 -0.07547992358783462
1274 -0.05976601712078604 -0.07744594537123364 -0.010811002273055346
1559 0.01607399556809385 -0.06833861527858416 -0.04271255144097771
1379 0.025111597221263538 0.038849800263878936 -0.022763680638246464
1578 -0.016185981675681353 0.029892503452101364 0.02000653577510113
1173 -0.09831653786316374 0.04908643273299907 -0.03685883855704421
881 -0.10793369483572793 0.22703678042677555 -0.05340176727014408
1117 -0.05937406979697786 0.08770167924843839 -0.0484226827640063
1243 0.2124013935881683 -0.20178659200770388 -0.019994673334331615
1252 -0.032871810658680695 -0.01865032634249931 -0.013056520128124895
145 -0.07002083570460718 0.1562782829594612 0.1517689268422538
1113 -0.13954764951705464 0.04772172786014406 -0.030841165310118965
1188 0.2041290275726897 -0.006594442201081997 0.10083924485966647
1099 -0.024091799256751444 -0.05256969657635372 -0.07804394262344583
1108 0.1351309637675029 -0.03811884502242061 -0.017469536670565024
1276 0.15962709150565707 -0.04593511767441543 -0.11442711184582967
1569 0.04140202114243376 -0.018989139102232967 0.13431005612132418
1604 -0.141685843080498 0.06051715902703918 -0.1947008485241329
1407 -0.17170974924751023 -0.05852694876885112 -0.137726440244736
1472 -0.03791961368031551 0.015108426971738064 0.03115340277678446
6960 0.002076138239575677 0.005212611165042381 -0.14747983918522042
1079 0.1525429337810786 0.16450158561648262 0.03612384144820255
901 0.020543842168106213 0.09675594368398824 0.0530260381726611
848 0.042386208855595325 -0.017722614713589373 -0.007918267137661205
1102 -0.22219359275269968 -0.06873994787986354 0.006239452496137789
1125 -0.10324750008517905 -0.04653639129840472 -0.12958645030335372
1471 0.0016833351035977322 0.1250768540923995 -0.09424242884693901
1660 -0.0561389084485808 -0.14672346290297913 0.012285614829445853
1423 -0.03786461624112676 -0.11767914975392961 -0.04309760739500163
1083 0.026607759670151828 0.0079714263686983 0.11198380190705809
1466 -0.0936623037794877 -0.07638088659240026 -0.0013411344536613246
1487 -0.07592127175153 -0.03801500209286249 -0.0905007429643383
1520 0.0053841159213609815 0.08022271988548042 -0.10352210283505428
402 0.058678116412488324 -0.1281156574936883 -0.10929732350747313
1286 -0.0013608754671205411 -0.14876208138855868 -0.042610792932453845
1479 0.08655308162597808 -0.3042258944259396 0.029714304994415883
735 -0.08664655679355532 0.1730363976866826 0.025087077639794026
1526 -0.0627736744392971 -0.10214389516082618 0.001649382349844488
1546 0.04561320506867289 0.0759127770875473 -0.007686578312648084
1476 -0.1927249660163787 0.346610376604196 -0.006851928444526069
686 -0.0010007137610484572 -0.08488679093404768 -0.06714683851368544
708 -0.12341607344029958 -0.03892835092417027 -0.07220942612690906
1458 -0.011654264070168452 -0.047705671917140605 0.0489505153060676
1615 -0.01861576877494837 0.016466773618957514 -0.03144303177641267
1524 0.13348822102534869 -0.026086991578608033 -0.05914267662332241
1583 0.03819279719792086 0.0585336057578426 -0.014952500608130147
1550 -0.025327218320982316 0.004353924660416217 0.006124559436620744
1494 0.24406485916179707 0.03599125370340228 0.04854828692271575
1605 0.14988830850568885 -0.013055310099067328 0.19566396329917465
862 0.02710083851105075 -0.058985105653871425 0.017070465241956316
1069 -0.04950767936319954 0.021682441162374444 -0.1607139515645854
1418 -0.12357650559912536 -0.08599956200991768 -0.116169054885367
1539 -0.1899407184008271 -0.04730056598607284 -0.13917822501507524
867 -0.030345672486809677 0.0001124669472086573 -0.2130131149785411
1474 -0.03908979290515677 0.08578155485610182 -0.06680172048603446
1499 -0.13752228958882404 -0.020518489299609626 -0.053596048809351406
842 0.017556719479524356 -0.07049342091693658 0.0855662629405747
990 0.03852598262467613 -0.08826217623968084 0.01557974620990197
1555 0.16928746708260817 -0.08386113182286632 -0.03778517363205276
1496 0.03976045276204346 0.008357559440266874 0.00029825522261036665
844 0.1639561413896449 -0.016249610169975087 -0.04696769971264693
1500 -0.07197540356262377 -0.04418242133593451 0.0406112658988744
1475 0.16284512931858025 -0.01978683550945372 0.03268493373851632
1588 0.08717963565501825 -0.07244916787462197 0.043488091535050094
1001 -0.19808766109636358 0.08257343694308847 -0.10799718449837309
925 -0.07041648800173096 0.057243990526063805 0.033827833598827906
1561 0.15746086241219737 -0.01989320772585353 0.01362650344700268
923 -0.0021469382203693843 -0.1624245717758461 0.05433088450374208
12289 0.007832877897166336 -0.0747468244961065 0.22657636218024815
645 0.030712874855192293 -0.00012902502170969443 0.1886869406685544
11574 0.10493098842332921 -0.1531508775479201 -0.021560192704924878
16409 -0.07809200665111589 0.08095056785121658 -0.12079409184708012
15803 -0.010689948368142067 0.043588852578899835 -0.023029909270277843
16147 -0.05451387271074324 0.05317877045050747 0.07216460578125329
11786 0.13912591697901014 0.03448165483954828 0.12123248844247018
12319 -0.019796651004424008 0.010710354814628923 0.02715654439021337
17009 0.09505759465703038 0.01708508732936923 0.12232757290290769
13106 0.07083016691514425 -0.00577241609630456 -0.10525025275651274
15131 -0.05784412588314525 -0.015452746856004139 0.023618036207176743
17759 -0.007758742865301371 0.029648247607977525 -0.057940433380598226
528 0.0033792965130535167 -0.02301904036682642 -0.11706107166619263
11508 0.09987353999381648 -0.04728600380245092 -0.04878353420596704
15863 0.025864391151477876 -0.009022827288946388 0.1500548687665777
11260 -0.041792056837638335 -0.053827213987134914 0.08490539111308089
16213 -0.040108366014828783 0.003063388001407135 0.08016389295866551
15246 -0.005672834494663414 0.26520750733619036 -0.08680919842074072
15034 0.010635057267077381 -0.005485571049938049 -0.03788781293328996
17398 0.023346063244968046 -0.03465165139816452 0.11935671367001995
17431 0.04955311529272545 -0.10434050354611614 -0.045575040115922345
16633 -0.06757945223156576 0.05982282865036998 -0.05594114562258002
16208 0.00567473057652983 -0.05413167610582731 0.07122965425680218
16699 -0.039414974313548956 0.09220938918594804 -0.23349728621252414
15763 -0.04531120393397601 0.017478701153377088 -0.0216805966911647
17570 -0.0024477362190943345 -0.07499991886404739 0.04069914546599393
470 -0.013645325589510052 0.007623924532892144 0.011357624277302927
14996 -0.05591540659389887 0.009826046425242832 -0.024270435947098046
16009 0.019644241374257444 -0.02522796908764307 0.09485831164584207
1318 0.103066267116976 0.16653825920899906 0.14703488504066214
663 0.07791900428946882 -0.16580116199611336 0.02042865508249272
15718 -0.019812340867486334 -0.023681895688532593 0.08760964380529482
16666 -0.13592673851457648 0.12482530984148975 0.010703194373387898
14863 -0.042995383660968535 -0.034084890089203894 0.036527376797178455
15772 -0.18347556569685838 -0.10416284019049118 0.11831938305567229
16037 -0.01965848515148469 0.002297344058057059 0.02891352045576811
13305 0.10190785212931006 -0.06110711420620947 0.0003911160746850363
1847 0.01580566546283388 0.02848171361422803 0.03788330730768741
14413 0.01948038873203023 -0.06004476452375912 -0.18164608249363257
1363 0.014449172329004854 0.06847907208502602 -0.030555569013435632
17071 -0.04524948936943149 0.17528012827773573 -0.054447830213645604
14266 0.029474444593829516 -0.13094342562865155 0.1111958490709955
13306 0.04043236845443356 0.11855544886221969 -0.01698256286375787
17216 -0.04455049406000424 -0.008642204691278948 0.04048634767397689
11679 -0.004962591991484976 0.09912659274342667 -0.08612633633968113
17649 -0.08852567516831629 -0.016610032478074858 -0.031959493736919545
16735 0.04670596111613347 0.21180950556099437 -0.09854828965431066
17600 0.10642329201150733 0.08535865736128667 0.03632590774691637
1366 0.11683167469291894 -0.08774779933158516 -0.11024428649361416
17679 -0.06182794144723694 -0.05965994264556847 -0.1004626904129889
2663 0.08153453609911436 -0.006107982824912147 0.22113304652591614
13678 0.11013675536727259 0.009406702653597613 0.013905228837130596
480 0.11713826601835042 -0.06233668808506167 -0.015109227025081549
572 -0.03470167603907933 -0.20175189153451872 0.21405908556385048
2156 0.06485171188390229 0.026640036956513805 0.07131650343095557
15787 0.0352482605705323 0.02461362088474048 0.08072928632651746
15848 -0.10352056126828393 -0.10000144042857305 0.05570973674450637
16418 -0.10637606610505462 0.0752961432958556 -0.05132266004352466
17254 0.039468928168427966 -0.0089019962855423 0.00967892286747159
13545 0.13813693182024847 -0.1311654642546773 0.13363223010850558
12561 -0.1451061038237529 0.017889566953960052 0.08426592251789777
17620 0.021590168299867492 0.09718208207358697 0.026553696137878675
486 -0.0702135286829629 0.06843241135519179 -0.04333776069182039
650 0.07790601494058269 -0.07005796058502982 0.015906082112906044
13869 -0.11263547685309823 -0.019025758034968296 -0.06093096915844247
544 0.06686606475954937 0.0658181921763259 -0.10330382298637218
17603 -0.1421372574000833 0.02089790203688605 0.06266873896265603
15604 -0.050279481454099315 -0.043629326923211344 0.051782731429266406
553 -0.1475685207654396 0.11166364962533559 -0.06657735731426667
16380 0.011318359029509886 0.002533915386927292 -0.09257349389894828
16796 0.07462465678075406 0.02919763714247564 0.05332267307396414
17472 -0.06293179301123566 0.16982561730250814 -0.07245253140228644
16980 -0.08740577545668693 -0.05267397436970798 0.1600386697677325
2523 -0.02911107381643972 -0.0006570076727822269 -0.09941417686872131
4732 -0.0069024658217316515 -0.13040400229863622 -0.15146951940445597
566 0.014810412830824425 -0.004935069577773701 -0.08117491712184345
11051 -0.15067970766598823 0.034804810737247435 -0.20976415037848728
16957 -0.048129655726210835 -0.19172868584491898 -0.008873299293166484
16668 -0.14320676575935865 -0.057490621676392885 -0.03648666463164883
17656 -0.016313692399548343 -0.005796906960641938 0.1601367454026413
17541 0.0429147733085417 -0.007982267077688177 -0.014182255501097448
17764 0.05467570305611748 -0.015733738657750247 -0.03703935402522072
2418 -0.07116672412331258 0.042482808653865216 0.17124231346405527
7569 0.05952821729241113 -0.02940415432625417 0.035851898965338316
12161 0.21249277878852496 0.05522558482167203 0.014683562224971258
678 -0.050271618228989 -0.025538342805471223 -0.14187306445513193
15390 0.12437681214659396 0.04267806727404295 -0.044603564603192425
15541 -0.04228837794857491 0.001206186815389346 -0.0566630061960743
17601 -0.19326060756290733 0.06234194520401028 0.05035426040068412
16044 -0.048639084894582296 -0.10482372830536192 -0.00850606890523391
14898 0.003697240714081021 0.027418527662380135 -0.14608146221255064
16344 -0.0569051657247624 0.02068472591184435 -0.18264184590885957
16769 -0.06476013028556815 -0.004703150144543213 0.005990103511433887
16486 0.017081598930673483 0.04942007689552698 -0.07157759225046374
14999 -0.03449287138068399 -0.055652970349506156 -0.22054238239336604
12446 -0.09839634680425353 0.01114993675710528 -0.047160928424914435
12529 -0.065494075923874 -0.0043844668761232886 0.15074122158248462
8913 0.021132844919591786 0.054647700880296426 0.01665021902353471
2522 -0.036452160140234266 -0.09637264316914505 -0.11302019759612518
1285 -0.11800208438424648 -0.01795102873148066 -0.002481157740538824
15355 0.11023195034402328 0.054810113147325444 -0.024089663354010832
16068 0.1048806813026035 0.015215177659792233 -0.1447241026547494
17282 -0.04682732535770506 0.15608376106171967 0.06290458632571393
15084 0.06676987096351435 0.013580548271024024 0.10056955514938948
16966 0.032252096333356635 0.03419840105492745 -0.07328084332643554
17378 0.04137545002314286 0.06283701357831273 -0.12939017872644126
13543 0.10912813205963506 -0.0463031232770036 -0.09417859642285847
17526 -0.10818394422965054 0.03258011229081661 -0.10864767874548815
13506 -0.17579222229024438 0.03029517240903809 -0.0857117419255646
13728 -0.03147359069185556 0.04580812086682584 -0.023644350636662332
647 0.134607747027521 0.1719337068387222 -0.026012334817030816
504 0.05849281452114537 0.06293525482120205 -0.01844323853170668
5777 -0.1622356469445206 0.1268127912552467 0.04578675078299131
485 0.006579062619779611 -0.09223527438471826 -0.13483230226663073
12491 0.027626284514695308 0.0012273964795104664 -0.044723279933218583
16256 0.0005801854663168553 -0.013348781260015433 0.05064527198319655
14554 -0.09443163770028043 -0.16497229553240064 -0.058238595495179686
15473 -0.08440970388644586 0.06097387230454905 -0.05711771808746963
17041 0.017696754199474397 0.03411033439461664 0.03466607432366489
16601 -0.07952846336161698 0.034743538902693674 -0.0033183279148149836
583 0.04069863991695224 -0.06591988033131224 0.16330520291911654
12641 -0.08055284142760902 0.0576644277586391 -0.15917762568066635
600 0.19265717012104022 -0.04890385292837783 0.08092765405815172
526 0.07677244373445115 -0.20475201899032122 0.08164587038037134
15976 -0.0984949367702348 -0.018939119469715653 -0.09103053122331851
10812 -0.03593918190359247 -0.14309960516479764 0.025029012765554318
12200 0.08382973297017193 -0.04286372972017028 0.0002989524997219113
13046 -0.04520429866460743 0.11202944056002863 -0.09443964694511278
10209 -0.11635249638481827 -0.03661519842265015 0.060879065257887055
17210 0.048498657002259304 -0.06127759533861123 0.18270787443007064
538 0.04115676496027573 -0.09959107738434544 0.018249441631196316
17760 0.0925857728521815 0.05691210150580077 0.024326727126157216
17311 -0.10942373370178439 -0.0526325312590102 -0.05529362107323332
17117 -0.010982570239060595 -0.08902174341206583 -0.04135639580654345
17371 0.022420656074072037 -0.12106002483712285 0.05003724363063595
9799 -0.03265239373751374 -0.03770406707117564 -0.11960340455912073
646 0.0746064988611547 -0.025497816533618677 0.015108243867187694
536 -0.045978320545366554 0.15175753792346663 0.061836694988246295
15363 0.14354655697581623 0.158258519622105 0.03150799662314228
491 0.022244292624447763 -0.05778385302727859 0.12789768503840798
12741 0.06774140252637756 0.08668894864692969 -0.00555079892834195
17062 -0.011532490607038018 -0.07905029835239857 -0.047151070691826204
17575 -0.16658131688886385 -0.0600113035681632 0.0077301489907237375
17346 0.02602799973120093 0.08709825710707536 0.03499457087393611
16504 -0.06588860709839783 -0.07294685624683118 -0.06940525046282728
17613 0.12161524070852889 -0.08139276421422909 0.17553588658490268
16576 -0.04419486933880541 0.005099779057940604 -0.09430397963181823
17763 -0.2307908604920904 0.012271886333342218 -0.11244971166922457
912 0.09319696893519994 0.09257258606387295 -0.10358815028023495
1009 0.02613416423575403 0.036253157131212715 0.09607593634936047
1296 -0.06714227760234219 -0.09514467721160441 0.12848785343947577
14858 0.02907395689269606 0.045290560020148425 -0.02215324899694013
915 0.05748066884978059 -0.0674286811638263 0.0048444362730085885
16719 -0.02607043452567154 -0.11015486154994651 0.003955600140837826
16640 0.04338515003404938 -0.015977211257558056 0.07767440343659848
16104 0.12359417714519129 0.04312573999714759 -0.08912229553187098
17653 0.002683510293396047 0.03332703517975194 0.033815462445941954
14564 0.015441882083350658 -0.10349445786768346 -0.12528471157994175
15479 0.06684158792375816 -0.06346786285497348 0.01809946366122757
17303 -0.024125694283846536 0.15604138013424454 0.0873463386710537
675 0.006883464133092983 0.03818736816465305 -0.007528807800680361
8578 0.0015194670464093174 -0.07035304153224775 -0.03256013262330583
7512 -0.012322175753507612 0.1012683321713704 -0.1578252758029745
15866 -0.026078965165344623 -0.00950637951004174 0.06627752502798023
577 -0.08099553303737793 0.1787697201581905 -0.05891379041569785
16010 -0.06368635581698423 -0.034050950952568354 0.02427264002874317
16560 -0.07955405980673023 0.07855547871276244 0.10427989035200456
543 -0.015795711012547092 0.08733743467430706 -0.05921898960235351
16836 -0.006303493104206673 0.07961178459986133 -0.004032120170533976
17238 -0.011290318840188147 -0.004223554832793966 0.1466815716980208
12830 -0.0057413549746466105 -0.009822474105762286 0.03917358437153789
11535 0.01714021652977026 0.10742081285346189 -0.08405900388356752
16426 0.009763720072680945 -0.009333798320879168 0.1447040766717047
17564 -0.01980537330395668 -0.00586727634615101 0.069742289687174
12633 -0.029918111038113926 0.2618782570441924 0.04853890803397127
511 -0.022545598748017197 0.043539851684349096 0.041170301164197065
1645 0.04652839241293801 0.2317538105541717 -0.306031821883917
655 -0.037167230442144907 0.11733511443719352 0.14723640472320149
15018 -0.14951073929274103 -0.021321559568899327 -0.23634596255478346
16979 -0.09794048571103688 -0.020150135629600472 -0.06537952571135035
16694 0.008677090082471056 0.003934693260744738 -0.1184785695529601
12041 0.10438796237144085 0.17558386327119976 0.17206188906295744
13877 -0.05644084661951466 0.1287657540531198 -0.08469599385893008
16443 -0.02750877409834521 0.2245846853949584 -0.05445765229642533
17215 0.05440048014553375 0.020281951495489815 0.16199263885783785
16863 -0.07125424678671598 0.017901161676588218 0.03464643607004798
17625 -0.08229334364514061 0.08065915574376385 0.0045677040721217345
545 -0.039210238990149485 0.12826117058274109 -0.1524753732066033
17610 0.15288201710213525 0.06033842311792541 0.21574416449536085
17432 -0.13411141545479943 -0.1306099849720897 -0.015652146704756426
5690 0.15276362107914926 -0.08645600973113016 -0.05834511065465145
14980 -0.07048342798033427 0.13684503634071876 0.022485301114417315
13539 0.09963642511635366 -0.036453422298241 -0.16133698126962895
17661 0.1609986809349659 0.13680115860494033 -0.04316644176353889
17641 -0.04193272372731663 0.04962291150663097 0.007557748755054189
13931 0.043786562869550585 0.07620574617664957 0.01876332881963995
17639 -0.09773267868633444 -0.14087609837222048 -0.07133479105441638
17198 -0.037560169497194 0.07876051401493253 0.20066315939876117
17539 -0.011582918057666518 -0.15145271812268563 0.0937860567584173
17154 -0.04206196644450305 0.19434040874679076 0.010807973518142059
603 0.09851116143556884 -0.026311134007309857 -0.10641065296591265
16493 -0.002811851879335161 0.06017890273169801 -0.012993931229373399
14178 -0.12649219472644452 -0.027063496634020096 -0.04550358384074782
1374 -0.17928170533772367 -0.050743833605587554 -0.09911284338462215
666 -0.024597267596375882 0.07598968899711618 0.07220637544413032
16831 0.04062486495862922 0.1012377842775712 -0.0016496055264875829
17505 -0.12281404163969879 -0.12289578439586013 0.05776406693017816
14041 -0.016185305142343877 0.042027941482018105 0.10096866026731131
15671 0.16233801336856835 0.04879650699230818 -0.029028395043995982
17301 0.0433884910350477 0.06775717654833727 -0.06763455382749993
17333 0.11556840743728594 0.012651449717093432 -0.03600750884192095
17306 -0.01240041466066117 0.16004819454434857 0.06380991439057203
11248 0.19402208367334056 0.09284648792703509 -0.09007147310725606
17503 0.0460218623033157 0.02465856272444311 -0.21245387256774714
9467 0.16255543194704736 -0.08261116877154451 0.00670335359180162
668 0.15230663076373535 0.05380422722867326 0.0679188837078196
1324 -0.08899020254651459 0.00740609056913305 -0.07693353086368217
17565 0.06433218194081176 0.009928163676459798 0.0237841457098246
14687 0.052948986085986166 0.06446624532914488 -0.07296316589367151
1837 0.032588822910898145 0.020449236106750614 0.03465011918954554
15422 -0.03952234721063055 -0.056304673338062654 0.04191495072220111
15298 0.1389690950808833 0.0317836564094517 -0.09973999976480516
14924 0.04570931576061659 0.11977338399096893 0.07001013137766028
16973 0.005833556814580574 0.033650439232548686 -0.039043633061197
16806 -0.08612560690167563 0.08737347477869314 0.017456193800192994
540 -0.03623441552513225 -0.07906841862584958 -0.024377150905826112
2255 0.053382064370202924 -0.03572466627056431 0.043892053268762304
552 0.08720730592998573 0.02022418069762918 -0.0027867845622245382
12969 -0.0029293136043234205 0.006842785171568144 0.1954383743672018
15601 0.10301229502263609 -0.08729727719377373 -0.2357256231062417
16888 -0.07042660101661066 -0.1677108255477989 0.1660557855761833
17050 0.025866616652980425 -0.09650002710659188 -0.0178718226718108
16263 -0.10046123757404571 -0.05961009246281368 -0.057627820919685345
12272 0.06727458471002941 0.13003732591668843 -0.05389819707703983
17703 0.017695243850285015 0.01751088415476748 0.06328332694587666
17593 0.04590653778452796 -0.08319119806546453 -0.011872262750017099
17098 0.07684906364101393 0.026969584560168108 -0.006309948391258744
484 -0.0305054265711985 -0.061609499562093925 0.0013484416236960763
588 0.0718974887616078 0.02638366095021467 -0.040652066332556164
519 0.12223035254921395 0.023055916503479667 -0.011662894260488398
534 -0.023248103051509664 0.07489377949228256 0.22643441082027405
14038 -0.05941184767590174 -0.012778526811868716 0.0145826920985544
10694 -0.06793501636692016 0.027863615184411775 -0.08537730750075136
14009 -0.15681180938161973 -0.060263198604257676 -0.05364247618327795
17671 -0.010521816365095398 0.10692146244083445 -0.02128253282257179
17643 0.0413022325765325 -0.10353997523488799 -0.023826726288232264
15975 -0.029196080991652735 -0.048440950953939056 -0.11858197663091495
15101 -0.05919540919226686 0.02484685849948025 0.011035786297234207
17264 0.10924787694719512 0.06076403108252902 0.1583483729059714
10169 0.18705032879191794 -0.05570430924583525 0.012839056736114324
1316 -0.13337345492290376 -0.1516956476478904 0.11564670976177352
1334 0.05604711965462613 -0.15016182106429588 -0.10358718693679271
1606 -0.0433633446009715 -0.08524746314366365 0.010863217204171296
979 0.030027638491073597 0.011818254722731673 0.03383399599622515
13498 0.11072931886762029 -0.1280739088867005 0.012430046138994538
17534 0.024226100241304227 -0.115276860196917 0.05280902642716716
17407 -0.04117714285015488 -0.02051154201156614 0.013397392037595733
1300 -0.0385427811261046 0.04808182109823931 -0.11085779700202872
17576 -0.010059907587548819 0.07147881165389239 -0.06818144314884172
17386 0.06412610008942234 0.072063135827023 0.1025334451558652
17577 -0.17065590664634486 0.164304778561829 -0.028856092397007232
17323 0.01006030808025747 0.05853466590142754 -0.07145450787807951
1385 -0.140956790365905 -0.006147166805044853 0.016112870688266338
1342 0.046872836613184095 0.07940987590886017 -0.06833785869735436
541 -0.1386446321644421 0.11785466928425672 -0.0633077777036598
6025 0.0454629141046045 0.038986089062645696 0.11445815819080096
1603 -0.027426459369773584 -0.04739577310877911 -0.14775714823369654
14674 0.18141848202609992 0.023535295569684353 0.015914921798955636
12497 0.08107660771918636 -0.04815580265694066 0.03332688462410614
17463 -0.04010155066960366 0.037171205033591274 0.04127894860622609
17174 -0.04347294581696748 0.15456036173181495 -0.10328055719208311
17574 -0.17845274382479098 -0.0014296828210265053 0.06759528235584247
15732 0.07647605720375862 0.04380870281418731 -0.09343024481367206
15864 -0.0530135871549243 -0.028952788105621706 -0.003964767248838447
10199 0.1859610372788486 -0.11275918221738639 -0.018629811777410972
9406 0.16803518120760663 0.02871367016866423 -0.03070929555023003
1361 -0.07706561986184601 -0.005864306088557432 0.05099887995881403
13624 -0.1940019914332876 0.04109228428741665 -0.026679397633678326
13160 0.007167151965611004 0.12643592687755686 -0.019970732933653777
17312 -0.21154785776014146 0.1221927072851019 -0.14304199114587723
10728 -0.028443818077465724 -0.030236611298362664 -0.05309885135190951
15574 0.03069934793535011 0.03592704213501343 0.004289638775012684
14950 -0.054016532348932125 -0.03951067789628115 -0.05740022893348125
15974 0.04225094652644284 -0.026841753627614106 -0.009393015348411079
16043 0.0017888698337715008 -0.10591624049799593 0.04384515181692688
13457 0.10027721399381645 -0.22753641945170325 -0.026158238464001997
487 0.09996194216594527 -0.09407739819332618 0.008420048665859665
1362 0.0185438742801836 -0.03225972089125129 0.11331951515480729
13032 -0.0631975845073848 -0.0017550815706089285 0.023062085270590872
1402 -0.11592273069262214 -0.13053030260913362 -0.010730031241910132
13518 -0.03895592725318013 0.17927448679675606 0.0867786009250547
9599 -0.007505259258731391 -0.11205571088585048 0.030321599850993506
17584 -0.07214640127614348 0.026727830762664526 -0.1525349950781771
17592 -0.07257308460154077 -0.021427377122304157 -0.02415218890285991
16795 0.07679618577455707 -0.00021491826975898048 0.12870228138532713
1567 0.08795394467667766 0.06429270986075449 0.041950476360710746
10237 -0.061075647664394536 0.1749805922285884 0.04015821641573761
954 -0.024668536549921037 -0.013936194304384458 -0.13000412774957487
13673 0.14870730537114019 0.06479474344170713 0.08593570988565587
16670 0.10398417357672023 0.10156578415626488 0.011768533536076306
16990 -0.13259418106187226 0.096195359487351 0.0032817289142875634
16361 -0.08899311579214662 0.3553334436200645 -0.06114754347537209
17121 0.09079323543607594 0.04785669075756114 -0.15341437004547706
13907 -0.037758064362461666 0.10311553663575959 -0.06959102856041456
1376 -0.15587203671373606 0.05360648660695749 0.069070055283263
14463 -0.1637212472041824 0.029308519795948302 -0.15122819383631586
1367 -0.09656009205264919 0.15041791053766917 -0.07999972238410641
14504 0.030612093374932828 -0.11637443267673873 0.17327437951063085
16789 -0.08748855861037194 -0.027454573938317565 0.11064359532479395
1590 0.22443887813094052 0.05048756515647974 -0.10572242598263414
17309 0.045355989483651334 -0.0763513044682627 0.031376524583791386
17500 0.07537429814665025 0.04424666677347884 -0.05690168089460429
17349 0.08012728711652856 -0.028871208632098338 -0.1367470994402756
16394 -0.13681922788306386 0.07050484679331298 -0.02769427687546665
15421 -0.11266983300085318 -0.03985744929989456 -0.11007548364093973
16543 -0.016334508540434733 0.07926645804675853 -0.045995730162970636
1354 0.012105888342901824 0.018391827024706944 0.09645913688640673
4612 0.12500349810831798 0.13126448926639825 0.09361281910323474
1269 0.06486097789274667 -0.02086886071606129 0.0664447672527156
1345 0.09804033007585271 -0.06468114323657333 -0.0564764227403785
8586 -0.03611872742751956 0.17096638965499658 0.08859480975898336
16279 0.025304610061016114 -0.07526933195365637 -0.04787379976887199
17025 -0.09338332397593016 -0.03754818851016403 -0.022960949675119118
17101 -0.06493686884422475 0.01653350101996929 -0.15375880432935124
17617 -0.09706945688083787 -0.10774492832854977 -0.026331097718516293
17533 0.23781609667857295 0.03197875250865578 -0.15656437359559408
17368 0.031430378495148834 -0.02031665702960217 0.17974433363903247
16061 -0.0819666448238034 -0.042506052155005754 0.05929748642411191
1409 0.014350860396417583 0.06657931051012919 -0.000639741757685032
1381 -0.16304593838630496 -0.08258062545377372 0.09980262748218346
1392 -0.06316057697648908 0.14103074283171305 0.09410183482079423
673 0.0009702462977744068 0.01495258300408924 -0.22357766351044306
17288 -0.07760695966965184 0.055454119982515766 -0.09176247423464641
1399 -0.017676931587309482 -0.10012715163565003 0.0020239237711153005
1333 -0.22123859100488477 0.1653668702019453 0.10894186807806487
15466 0.020123832093078404 -0.051539137370672214 -0.1020242568220692
1858 -0.020075336029241934 0.05569952555250489 -0.11897306701549389
9254 -0.17394722576303026 0.1392644536081405 0.013975709927846008
16682 -0.09436576191604866 -0.030567579568585548 0.19245710190664714
17676 0.012633646634721881 -0.009905169568706816 0.023303173434478842
1278 -0.1872798621255506 0.016349023166854715 0.030054554883830978
16227 -0.009218050600493142 0.08166022230611357 0.10185554372474478
10573 0.004056812886536988 0.04432697930288222 0.012872353396568795
612 0.174064737949125 -0.13398389023965487 0.08973025885930257
1369 -0.1994363902220135 -0.08636766639976805 -0.037286654957618015
17525 -0.04303021703596824 0.05378549133578603 -0.017170747378837135
1830 0.1815928143061147 0.0004287148685931906 0.007732428886298756
17528 -0.058925060076454164 -0.09535484795793701 0.009952269076629373
14914 0.0013370355960360333 -0.08688434103615057 -0.06595611880186182
14743 -0.06099747469084435 0.18749187272491177 -0.03079180298772385
16988 -0.084700996143982 -0.014884953262526328 0.02708566494238441
17123 0.024619700981749836 -0.08012440735172258 0.1666096994052126
16744 -0.00031028116610999244 0.13089586274054218 0.04231888388576517
15086 -0.004126955483208308 -0.031204609493842444 -0.012197202924935091
17189 -0.09957153955068827 0.14236482867539102 -0.006057907818738911
16770 -0.13317728689438896 -0.030808322236191968 -0.07573180363317258
550 0.012281947598473252 -0.014075880576286538 0.1171553113502471
615 0.01835729387680951 -0.20473835080329364 0.06381074518250052
664 -0.10228955231475272 0.016295401458670086 0.05264442618999776
17217 -0.11257336331214121 -0.038697872396394696 -0.12812766609845117
13577 -0.09985215348196275 -0.0688145548908248 0.08960591129275493
12699 -0.07421962323858569 -0.02285451269779959 0.12936754896450478
15273 -0.005258684386378686 -0.08799811802992959 0.10391110940326709
12503 0.13387171539361048 0.013488668805030154 -0.07646686734061155
17361 -0.16569118699784677 -0.06799334053705129 -0.010116333846933388
15103 0.11160653462306806 0.06848885908687886 -0.12315499410301084
16316 0.14077875345223217 -0.07290580242383374 -0.019517243495464416
12522 -0.05932207999841346 0.08900545695672427 -0.03282896417168243
14370 -0.08853989696703429 -0.05305750900045447 -0.11767341125178067
12372 0.03243041569210272 0.1447967554114156 -0.043836054524504064
549 -0.06267897171079795 0.1096598326918408 -0.047430007518739215
618 -0.06167257411846824 0.05414060691154485 -0.10980871645321535
13569 -0.08736621895190894 0.0765357623137084 -0.09742541510120846
12335 -0.08774510513616873 0.08639835331252178 0.007217265497775125
17197 0.012086620707522366 0.06155455250578437 -0.005140847195711026
16882 0.04378775612722162 0.11938735238798162 0.0740156953012732
17633 0.05855834676928785 0.13804209732046804 0.0009020990402968318
17591 0.051639270634494555 0.035367610635812376 0.026094954209125002
17582 0.2577336090711094 -0.10201351192274946 0.05143941842906456
17182 0.025829104240536027 -0.11994865683841525 0.08988862143068646
16678 0.038598306814535924 0.03760195394202718 -0.12606976552829555
1341 -0.05572762807103109 0.048029827782291215 -0.06050630099963287
1360 -0.06701361029218757 0.1150700165585702 -0.028367954346918973
1336 -0.0368996978237022 0.02084507297375474 0.044475054072322925
1377 -0.0035100690743292157 0.015191800091208617 -0.1529934200801864
17092 -0.1521793319679678 -0.0567647003880556 0.028818833032752005
13863 -0.07479760820959579 -0.00617881102457914 -0.06978105714002608
2148 0.013202016579197947 0.1703366622155124 -0.04373100489563256
17057 0.09099959887986608 -0.14092915055372823 0.028661277088397046
16214 0.1693321791284532 0.02957611977310992 -0.10926515466569452
16910 -0.0005368297589407219 -0.034971979340323485 0.06793982491395327
17321 -0.06012882104461923 0.029400208329138016 0.04117208923965265
17110 -0.024579911136948164 -0.12400164202174116 -0.04828085609981926
10600 0.01775485120953223 0.05667518363642289 0.23197760778213938
1281 -0.03523223582536171 0.1420256036660284 0.03276202246919581
1383 0.16716080602367533 0.057685791708281905 0.09133114842987969
14712 0.00909724995424347 0.2796302070811047 0.11629393533651101
16587 0.07358231414046641 0.10085784140721002 -0.10071428942788051
9731 0.10353325723951123 -0.10145172054409803 -0.019906805929016405
16131 0.09713354677247948 -0.10970759950926931 0.15596340870062092
17637 0.03505838181491987 -0.07818231719990798 0.04806530467973707
17408 0.13765131832269864 -0.0705540975822236 -0.03892076886416322
17648 0.1717951601472842 -0.10673795560708514 -0.028286974468508704
1596 0.10747052797182638 -0.2976988567213473 0.10002509966154059
980 -0.07266553995146752 -0.055337813926979645 0.05989479382162642
1591 0.014489678675028664 -0.027607458819557378 -0.01889072363487515
1016 -0.047480496617829555 -0.2433603956293321 0.0031030019562125997
17367 0.13688967847366817 -0.015830700510059734 0.049649409489011115
16874 -0.006325376205556801 -0.015232459570637649 -0.03177602442067663
10561 0.03918629768362332 0.11400678207211323 0.07392136266394199
935 0.017825986578248305 -0.1538255140340987 0.0019581100530499107
7951 0.031309032693936006 0.020557454339282265 -0.05227947308580003
17155 0.031050578406484272 -0.06607261208677531 -0.0291623054530494
16802 -0.02414327887117065 0.09273391978544152 -0.03721382325932535
17506 0.07922718788247114 0.13995113144397067 -0.020021394959696393
1030 0.09815068964789334 -0.026970010890520743 -0.043783787604996724
14062 0.023463883498412986 -0.14322026661214907 -0.05174981712526762
14802 -0.1478677505439376 -0.03473436425134545 0.04468031154156787
1580 0.0715438521372113 0.018957608598635125 -0.06237009266851032
988 0.14390264565191999 0.011674182702229047 0.11949541725613727
17405 -0.042637167652791394 -0.045877579552954934 -0.016846498256702258
16258 0.15585297888373056 0.0892261525715604 0.04821291791060409
12348 0.05102596945651293 0.015119329144319675 0.127832370566846
16432 0.056264201938673895 0.017621941096275965 -0.1874681134596619
17413 -0.06824798908783845 -0.18280259502830795 -0.01887020764780849
14511 -0.17278954562788162 -0.041117554101242536 0.08815337379743164
586 0.020344545309900507 0.09122447859566482 0.09498877065137859
560 0.018711061572110423 0.09830544358130462 0.06231974286401725
8382 -0.06614917877978918 0.10001740016570364 0.009196883647317484
17345 -0.06757206085666595 -0.021475533426566162 0.028585650825849115
2194 -0.19357028563340173 0.1279409969248939 -0.07312376283811974
17623 0.15676432459949605 -0.08781255954896432 -0.10390010256083199
16838 -0.016936596765884868 -0.07615984086863051 -0.12398398783512095
16612 -0.002302199986754818 0.016057015691266066 -0.023121492722551
15342 0.18059721640232346 -0.11497549799765576 -0.028040432994735666
17704 0.015283343387188723 0.1349952541328706 0.12612324868197747
17524 0.03743757502667476 0.13639175312741214 -0.020129286100856708
17680 -0.09745454314314451 -0.11530469007952211 -0.13096164324800244
17152 0.15206008562768986 -0.1488841526447917 0.019191632228239407
17059 -0.022280678669413065 -0.11207129206263884 -0.041760178406561446
959 -0.001568304036079854 0.20549742236327886 0.010363941285555301
10215 -0.2051889399516025 0.005385536418069109 -0.031920494147881465
1672 0.02547926914747793 -0.02201074237867991 0.025107927772449988
920 0.014961269072239094 0.09534321091375747 -0.0748691853932861
15408 0.040656082517063284 0.11068386561537744 -0.11064928801337735
17203 0.19824621421292016 -0.08171892154334855 -0.03987875797561469
16049 -0.0311825739209007 0.0720887133398878 0.14151509886665287
13973 0.09331161210827912 0.09745688272039515 0.1239544275556059
17322 0.0899274337554698 0.053842870548666454 -0.00963398486606458
15945 0.02183448330937889 0.1257415461855257 0.07399133151650794
5133 -0.02337591021967019 0.054146669545508105 0.002788139938137854
1011 -0.02152787779275741 0.006406129261423407 0.007552901717440524
955 -0.034631638310682056 -0.13151503684939914 0.1188825665041288
662 0.09245180228524505 0.05791702036264529 0.2589539746912909
1000 -0.0016534574219786544 -0.14729562380854924 0.0183149658391618
16760 0.01416881140254573 -0.09129069559897485 -0.023211237069664346
948 -0.09578769014202941 -0.08554239451740901 0.19214787868894886
964 -0.05744325682526801 -0.04783012806071899 -0.04251310512563683
16914 -0.09841286330941848 0.08526210976648164 0.03331648962365061
17385 -0.04942802531970254 0.11468538690058953 0.05246127074803146
16911 0.16237978091861122 0.09242364625826319 -0.014190338864123339
17064 0.019436093233435654 -0.09953363133145013 -0.10289046068351905
15208 0.014324802020344175 0.20129380087536078 -0.10172452435158967
17017 0.0034830000292249974 -0.027491190478810875 0.0668656953733732
17366 0.11324005037787689 -0.12700235399192855 -0.12316556791870842
11663 0.017266919761716983 -0.023962938936231703 -0.024613396498993752
4901 0.11927822195641523 -0.053244295971537 0.011295758815424042
1015 -0.12173333186327122 -0.19194120921535548 0.05667415815849526
13287 -0.060991940011026924 -0.1871693744915412 0.07127160798672846
14881 -0.1045664071896976 -0.21611880753086168 -0.04784556763921119
16355 -0.0726295891348948 0.024860607360163593 0.026404066378612867
16373 -0.02454701852864641 0.1408782371919194 -0.17317195037987934
16127 -0.21521899737549097 -0.030175766772248657 0.21562821106912927
15952 -0.04417317256837918 0.1375952237023074 0.09505841127394557
15123 0.037738949943701784 0.005865305218192077 0.14959784079954222
16849 -0.20294414637475153 -0.04033409441327016 -0.04144425335704471
16593 0.055928290640273146 0.07203038421489501 0.09743610284171142
16075 0.10018309997976148 -0.1172515897122961 0.024436566331803716
14221 -0.04557410369822122 -0.09037241044840072 0.052334573766352525
15640 0.04135011735132555 0.09486024992645806 -0.051760047452900346
17310 0.032751405734801536 0.04413694225213155 -0.024418376181965344
910 0.23109742871151953 -0.1306353380392739 -0.0011600294213317264
904 0.0831675553414677 0.012396194510267867 0.07068763477447737
956 -0.05553949868270164 0.14530091128227945 0.08569598499557429
14398 -0.032158158989886 0.0501165298291997 0.1223601565816195
14188 -0.055376845137430374 -0.1033801002534695 0.03222414485868249
17450 0.046037752271701 -0.018146451598874812 0.015676739121881673
17695 0.014378093693306476 -0.16803159707240053 0.07848328187807883
16671 -0.034659411700519366 0.014467227761829042 0.1574859897287014
17102 -0.0325361893259664 -0.17920088551781432 0.13989331265512628
17562 -0.05432106518662331 0.1460505977981137 -0.11832711085001026
15885 -0.06559913010535205 -0.015991845271453597 0.004026070152413054
17762 0.08389638659341518 -0.16916968485657413 -0.021910776823906814
1022 0.1370392038383621 0.08067374250515688 0.0739389011515526
516 0.07769323679003218 0.03861298258517058 0.05574926747956178
593 0.09995672471327037 -0.02345451507001324 0.11184197859985248
636 0.03872774388909456 0.25962349249700134 0.10160607512995685
16466 -0.020900211398976146 0.1445889981293802 0.1865321953383491
15182 0.20451638345887507 -0.08551463077935832 -0.024847458111006228
4775 0.05196501409610807 0.0759068767460797 0.09454610546972606
14982 -0.031434206641109866 -0.06893876574033218 0.12388378593849239
548 -0.08579440475062432 0.09538098699000916 0.11030057853927021
15603 -0.03551498731221684 0.12748353520810912 0.09733527099161171
16641 -0.03422059033814033 0.01602666016548944 0.07133269500965891
984 0.10888105066665335 0.03885240674770912 -0.19201828797179796
17329 -0.04816525823747945 0.0013105592529896737 -0.16545615879124148
973 -0.02315973409137214 -0.03769668802516543 0.016714607943007158
932 0.07797990150230352 0.022230739181936833 0.10701846942186324
11999 0.12291774259097202 0.029930852345458597 0.07247476714395776
969 -0.09889370260631664 -0.09150590254586233 -0.046069587139300705
17136 -0.06687331190768689 0.10267769424648723 0.13807938757858557
14285 -0.1425937417245097 -0.00866035512986906 0.0711765694044475
16591 -0.2740606035245685 -0.13994648302948495 0.035826908330912864
17650 -0.019412370996669686 0.09926909332635869 0.07283440403763604
16811 0.011076495912025915 0.26722781605647566 -0.04527561346014196
17700 -0.04780006553403811 -0.12799960539455787 0.07772149137658955
17325 -0.06341519458706274 0.039224264828604125 0.04346683138520336
903 0.06843350683197358 0.034106638811574025 0.06167479160754301
913 -0.13993445115722022 0.11011260823547116 -0.07170396151729465
16722 0.06722828796034194 0.065184403317707 -0.19822136380103697
15648 -0.11132877430299293 0.05151653567946197 0.17786300903021018
16891 0.018453362287914686 0.12005517501668059 0.10388351737397086
14286 0.05334577453252298 0.100032925470937 0.010326788270743958
17150 0.015741094667221858 0.19957827852164986 0.0002606858363578858
16074 -0.05242288458570801 0.04605816053671676 -0.08228756727311833
16042 -0.008726924391971817 -0.045193578404168856 -0.11501935017784713
14461 -0.008057491792292915 -0.14259919086077982 0.10181979914865347
17595 0.02585590500624336 0.023254725026831614 0.03817312107520616
16847 0.05314873556280473 -0.17093874897053626 -0.06839083473738508
14916 0.21932007056210046 0.017966577211139947 0.06521349344320926
13465 0.012769801816924956 -0.04226888456692851 0.06274642671835053
11335 -0.08060619972674954 0.09092078926668554 -0.15593756647914467
17159 0.04016127490776106 -0.05240099263366135 0.11124012150219079
16281 -0.13794647707283897 0.19146284213541884 -0.07263398695800063
16297 0.07738874541758606 0.09377778111204138 0.04993073321741283
15998 0.06297782330907725 0.02551530971278307 -0.021455456727283148
16797 0.1619827885506025 0.1359495507521313 -0.045141862973167704
16680 0.036753716557851424 0.1375552029811961 0.04854688829407143
17647 -0.12915410803377408 -0.16062091952368912 0.16111138665853586
16513 -0.07153981682716024 0.03801755871100692 -0.19447004392036532
17683 -0.025989784436486283 -0.0009224497988555825 -0.032358466044337356
14630 0.12128216528753072 -0.14507777669094002 -0.02243961970413825
672 -0.08284503132059039 0.07747194371236656 -0.08488872578937473
14633 -0.05332044661316323 0.025974712960438552 -0.056619074829370133
601 0.07536888574003903 -0.08395990483609617 -0.024670491186186076
9786 -0.1009331778454366 0.18312745749188306 -0.07578441785778281
924 0.012432929127301453 0.04360375435915059 0.0043381011560933245
1035 -0.13134324861186744 -0.08343635313740927 0.08067603964647403
17392 -0.11070463632481979 -0.07948963350726464 0.0242496966606649
12720 -0.1047089211225588 -0.00029991990532983806 -0.11877719581822055
1037 -0.017279454748878407 0.12982087724923222 0.07225443506154314
17364 0.09097162462520497 0.059089674929101055 -0.017662893146934852
16631 -0.0012660820107850274 -0.0106786013910352 -0.035855463071520675
16317 0.017924160207901784 -0.16045423531172232 -0.07415141984150705
17543 0.08569083035876066 -0.025442835140415926 -0.07827423259536609
14219 0.042381300629490005 0.06170774348763865 -0.13335953142384857
17481 -0.019207718909380368 -0.15096452225152518 -0.17413756399259384
17488 -0.09892073835944029 -0.021996194165481063 0.011955277750638985
919 -0.1740822643958214 -0.04426518221812342 -0.06297447339752199
676 0.0790932234787182 0.023670016375245045 -0.19950058386089928
995 0.11842056133311561 0.07349069362190111 0.042386899149773866
17327 0.044833189908151494 0.15883090123392843 0.008874509885682755
17490 -0.14684819575337962 0.02787999856854908 0.10818562702328481
17538 -0.12785027100773197 -0.06669897131038456 0.15080975190285992
17108 0.05313512917571324 0.09096796392515591 -0.07332471105870735
14602 0.006606768364845493 -0.11002818338182743 -0.06836385726382835
17469 0.17342976751582428 -0.04258897947879923 -0.04225405465126035
17468 -0.05117004479518432 -0.12150391003743857 -0.02703288659225519
17699 0.0410292151088745 -0.14479213293937532 0.07730698941448494
17547 0.017026647374283527 0.019685339738169088 -0.11677429257141787
17663 0.012457310810569142 -0.01487255845998519 -0.06415994330345524
15872 0.07612813653938497 0.06625366793566606 0.15478755016132623
993 0.09041829561924697 0.02045515649277856 0.012007179290163664
12107 0.06025050796285196 0.03888158030268326 0.0034866588031161015
992 -0.042349670927865804 0.06564541527334142 -0.06472057672079222
939 0.02951735085373809 0.02442438735509366 -0.04221036177154629
14277 -0.168061948632709 -0.15286420873530754 0.21479534857467952
13338 0.0352649615828837 0.08156657920187635 -0.06087662214119291
15933 -0.10595285629386492 -0.09992133637206768 -0.10415192269037177
17399 -0.04452685632208093 -0.08891091523943138 -0.10326232683296072
17389 -0.1136723721760022 -0.039817241245233906 -0.11841105801149714
17627 0.01592172178074387 0.04621175677825036 0.06030277138922925
17396 -0.09934109683060516 0.013600536574285817 0.09876591655426507
11677 0.010396146783085349 -0.006276749828005662 -0.02943671647873733
14911 0.020998545343488224 -0.036520172985985 0.0745859860492882
16303 -0.03375558577755407 -0.14558539381026864 -0.07348095376665549
15482 0.017876483997183397 0.12716355635343723 0.08862025296415567
16916 -0.1412100766986452 -0.02798283475853612 0.11454669020081414
16207 0.05694629492878763 -0.12676136153888803 -0.07979046282725669
16953 -0.08881740589622841 -0.037118117901297584 -0.1316009086402131
10335 -0.03592676868952813 0.08481235062179773 -0.1413835296422907
17546 -0.07542702080201068 0.011466897525192102 -0.13692288506325795
15279 0.09746305499373628 -0.15391446124177954 0.07628412547803984
17645 0.08842604802225083 -0.06460214412485674 -0.08778154636246291
991 0.09714034090299886 -0.09881166429088618 -0.03192990995212241
1612 0.06419615271520879 0.09801440268662687 0.05612403993056584
974 -0.15468062281714912 0.04594553958978462 0.18325987279360456
15127 -0.018266021794683805 0.04194043146471965 0.11789562867460557
1346 0.040808178437734655 0.20757661597000257 -0.06187536903762525
15683 -0.05053678554915037 0.07289105572451694 0.1047648107995631
12053 -0.025985532650337973 -0.016063067219682585 0.010061448702663676
16947 0.02301678607772674 0.02611606583861285 -0.031822968361414974
14696 -0.05888050152624283 0.17405691392025865 -0.03654432764896633
15932 -0.030650567425517354 -0.16046145871590997 0.04305584757626145
17433 0.0869264305515108 0.03740494294926645 0.012086147429974565
16364 0.05247522334543263 -0.0004458969536037527 0.01733080681931893
1021 -0.11708250948702657 0.09691461097247964 0.002478110686529312
982 -0.08591286498271691 0.07440772776728827 -0.1328298189138543
2587 0.02442266285678476 -0.0696885836350162 0.13160499837465836
1570 0.06470518346997173 -0.08352604660868226 -0.09048403111190528
1586 0.20859794137131732 0.03802787654188161 -0.040345580989472524
1033 0.1161889975248629 -0.05469792716544021 0.033967380699883296
12965 0.11518560019876467 -0.03225659816171482 0.0065535539770792805
16969 0.09090135765460275 0.05403076870967889 0.16257993482313993
8149 0.02691020339139485 0.03198928143925768 0.08172257157408355
16475 0.03483191604699752 -0.08156863508900991 0.034443537419843094
17052 0.09481874113897791 -0.11666499976342903 0.043729425613733414
17474 -0.005812560480821596 0.08611845161489909 -0.009201015742905296
16805 0.046368294340789776 0.09176527345653399 -0.056637840970150524
17597 0.1637492478553727 0.1263095456957781 0.07944047346822736
11218 -0.05768142221284411 0.026217052316893683 -0.06792039265405007
1032 -0.07362027406033583 0.030594187285485873 0.07479884853684891
9743 0.05252447231886366 0.09585673416986112 0.060260239198288476
983 0.023412824798059683 0.03423511438135023 -0.08408829915622244
17415 -0.15189958545739712 0.10871117996395203 -0.13487980900053417
16456 -0.10336512097987993 -0.06582368377432114 -0.24231257299427617
17078 -0.04953771377597951 -0.21721216088125314 -0.08386218417009705
1564 -0.16394138995950006 -0.015293388226783222 0.0026898261489902917
17296 -0.021088713721443643 0.007165021178805618 0.11467586824771299
17414 -0.10205346385187031 -0.049941914150455013 0.1543629366808539
15220 0.010379345060844043 -0.09222243086482103 -0.0008219600011234327
1375 -0.02371550259055888 -0.10293591225811292 0.05556703902821346
515 -0.05317950656156943 -0.07170509046025082 0.15166415646033407
16276 0.03578046629098014 0.0028358261019069625 -0.12018981335685365
8873 0.014961170404257264 0.0981127355169907 -0.039393960455154114
15894 0.0710939219429379 0.2038906300999037 0.14803265744227218
17242 -0.016699641379394285 -0.005693473724988407 0.10373714614379617
15464 0.1079009443933978 -0.012048450907289655 -0.06793608066140977
17439 0.16939657459605947 0.05398993214814818 -0.01984796110005778
17022 -0.02847740493311466 0.045740516156532574 -0.06208661446797665
17030 -0.08550312288835936 -0.036937153438868886 -0.013299057641826685
625 0.031184707916183725 0.015313005971095035 0.09535271325936759
1272 0.2091505754669981 -0.11397609922895287 0.04106866815903215
585 0.11833094379165997 -0.05084325513098406 0.008544514263676575
10594 0.07030653953112148 -0.21860964435945202 0.04591189160012206
14527 0.10186559857479492 -0.12675176640333558 -0.09751057472198496
584 -0.03904750773500998 -0.10222602200969318 -0.02233219310596694
934 0.031006105570415367 0.048262376347920716 0.002148086183538728
15339 0.021310603981336173 0.1431977468709675 -0.09457595207727089
17664 -0.05541578843058206 -0.07341242233926251 0.007106439012949544
909 -0.10976006186720806 0.0356372145673647 0.017073848345556596
2260 0.10016306483834499 0.0020290729640766066 -0.06740215987677575
1623 -0.18363554732631004 -0.015440219585487813 0.15357175213013344
1619 0.044097703549238455 -0.006284480424796951 0.11227728618769137
8881 -0.018032041296326618 -0.0762466110795105 0.05900507994294772
16483 -0.060842450090373 -0.060512538547396376 -0.07124271861120657
14956 -0.04859961254416488 -0.039499204518101697 -0.036592031412168796
13523 0.12828857268226837 0.010656014151300588 -0.10595316996405559
14320 0.11217907303227288 -0.17945208918536465 0.06334051135813026
16367 0.03170666825970759 -0.07998533904616816 0.14785277602643088
17509 0.1260822892589077 0.010195207305088208 -0.0260300092993387
16053 -0.04856833314479865 -0.02235541577332483 -0.14044286043996365
17693 0.05555314456521443 -0.10968877308227033 0.11211449194605701
17652 -0.030833526127637643 0.03926151587017451 -0.021728323038316576
17765 0.2119828817680689 0.128221475106067 -0.011351472729464959
5727 0.14605321942615107 -0.05371343725151488 -0.05388439193588595
4113 -0.017272274065982137 -0.06362136455681798 -0.07031232289048674
13721 0.013125766466042181 -0.2379158055994209 0.17891122066213525
12894 0.09263878894936138 -0.1956451661800639 0.03908274089329461
16241 0.02445656298122748 0.04317472723343857 -0.11185051418826229
16231 -0.016955864637550003 -0.11776877831357294 -0.009163921028504825
14984 0.009254960927382583 -0.001605724411343247 -0.09716321435232353
13076 -0.10279121653800048 0.018541831225364607 -0.04420397238060634
15197 -0.008065614023063132 0.15354682746657872 0.04670350535649509
17441 -0.11584984851415003 0.005263103448076686 -0.03782230240939586
17618 -0.06588112772529095 -0.019658311422757424 0.1795752376319261
1348 -0.09285920192160493 -0.06400686782476302 0.04559295254909754
1339 -0.17749541088551438 0.05169562850822833 -0.06351827857569062
1552 0.009144242303001537 -0.040251021495854605 0.06668345734170453
16222 -0.14043964528027797 -0.019884260101166017 -0.10026008590600918
1632 -0.002288959274346445 -0.05407732143220592 0.09507609868783008
13145 -0.10222008891365048 0.15164711245243215 0.11470941875063347
13097 -0.033373849409929726 -0.18024437023570547 -0.004340869281784735
15977 0.07820082082394506 -0.07247526698104076 0.01127834322586132
13777 0.1130453071155092 0.12936646374058564 -0.020342468741522467
17471 -0.05451854668668621 0.09503504287293539 0.08165316986900487
14804 0.11158655834354604 -0.010960018204130848 -0.054170369527489125
16595 0.13462158243975747 -0.000685615699180991 0.09099375922685725
17315 -0.0072059238381027655 0.028559059712004002 0.09262080978547822
16445 0.10328438627400259 0.06482110026427892 -0.0843656302912883
590 0.1506416023160332 -0.020202627781510992 0.09228534909914607
1386 -0.016362939798745885 0.060630343304739626 0.001970454758856193
967 -0.24380159550002112 -0.12561456176769936 0.10013203901377155
604 0.20126922673923284 0.08204471618178158 -0.0006295548226835004
16853 -0.05550885805265538 0.02227832163965083 -0.07705977791390421
1295 0.1259215571665717 -0.08839725683721768 -0.053024189234183144
15699 -0.029202103693859737 -0.10796416276298114 -0.08650524801340434
1953 0.033113115109219105 -0.3309222483107533 -0.013765279483991486
12133 -0.04117390627954229 0.06562072394301761 0.06309620677636153
1408 0.09963761497633904 0.01511442523950972 0.037232475902827036
1306 0.06997636178059527 0.020501573020969797 -0.0524287908093067
1310 0.14714313925239755 0.003942405187383958 -0.0699194148588689
5980 0.09137364237812282 -0.021396075057457335 0.07104170572654969
1650 0.35540284230230645 -0.021680257317986833 -0.25987625544808307
1268 -0.010342572845647963 -0.12204093596158018 0.011021782987066346
1317 0.07169858466474038 0.07726657730196958 0.002735529043443711
1617 -0.13459313090284952 0.016866657029476304 -0.06881010151373404
1358 0.042941547550364216 0.03895667092042354 0.07400988323788894
15768 0.1011731668441783 -0.025436619544825765 -0.1324743626154341
17510 -0.09595486572082813 0.08525201270450172 0.036358195201803487
1608 0.047156807366781024 0.09255959459992318 0.10879145429646356
16137 0.1441798621999277 -0.04570631179278631 0.035958036282236885
17619 -0.039232411720629475 -0.05001191072368588 0.10752246536270303
17761 0.11644706996159736 0.16973809850066363 -0.1287002938645775
1595 0.0044489959982218835 -0.023612937385285814 0.008538371863911822
1394 0.03240929588534185 -0.004111424280662308 -0.005476875112906956
1331 -0.12949816905730469 0.031721387283224066 -0.11048315284389545
1582 0.17639573584048915 -0.05852751202994354 0.14992283130494047
16818 0.08282652435914493 -0.1467706275649409 -0.009926987668404566
1325 0.05073271287501954 0.2326519307756045 -0.056001898042322876
15676 0.05915153721274456 0.05515905171698769 -0.08007664677825592
11481 -0.023378504393134276 0.11298361891415315 0.00945509058548892
17692 -0.00929432078559831 -0.08370179144722147 0.06808035913607484
15565 0.03857969501554942 0.13468503249604014 -0.056413583831330466
16564 0.12038550962140751 -0.18781863574892202 0.0486292026749904
16192 0.043476021918792886 0.05045953997379613 0.03981501845140495
8453 0.06689537704694576 0.09864029983063556 -0.00019069149990950766
14052 0.12059134696986443 -0.06918146223183295 0.11896491895461131
12433 0.12115063970234694 0.06236301079995558 0.1051841462195834
1620 0.09132736437738852 0.03121524875041237 0.011977490067791932
14662 -0.14275407652525876 -0.035862830086174066 -0.08262165990013791
13565 0.00864497445603581 -0.05626939092103491 -0.13999321549206195
5689 -0.09430455845216978 -0.04472967823297713 0.12052538222464357
16376 0.10631160674519918 0.1444509014951026 0.061764191617105654
15296 0.026930211512351095 -0.07146512906653861 -0.04136636114621493
14816 0.15015187793730378 -0.01507958428516812 -0.06824294938547862
16005 0.10195980601371656 -0.05874722584896079 -0.012194619572496398
15152 -0.03111396580536603 -0.04722788312657554 0.12451293769521468
17758 0.17486184346630756 -0.07186945008038961 0.10849797273863053
17430 0.02866734948290778 -0.006471152365615556 0.04161944136537603
1433 -0.09016476629152764 0.12155660817994063 0.026864866831585392
1368 0.10171755545524205 -0.002924815592670188 0.2304947064905884
656 0.015952550695851372 0.10449628338153964 0.11758118153985547
581 0.006952956354537508 0.059765215465118135 -0.24603380233130995
508 0.020077487630117043 0.0663115207768503 -0.07042983197864015
11758 -0.055829234223490065 0.009859679974422976 -0.047621406001658165
10357 -0.07472501168781784 -0.14404347100776835 -0.08235326208376847
11523 -0.0688094851263229 0.03469944854940067 -0.17003876964316234
1576 -5.286467587789674e-05 -0.03692373406692653 0.09331871951269888
14192 -0.029143443577008356 -0.05670204237990556 -0.05418967724763066
17157 0.023297648595066917 -0.027096115514668832 0.1443357207340284
14663 -0.10335621152877443 -0.12113204497228364 0.21906677567221272
16583 0.253598224568505 -0.14556042756270324 0.05358061710127977
16471 0.1524482416381462 -0.14148037592163049 0.023212351561469998
15907 -0.04423904228592966 0.10065965822731025 -0.19653630768487687
1283 0.027606210692755036 -0.01471823749511182 -0.0947055812563144
1560 0.08762103077136056 0.03169808848304036 0.08903661579958175
1571 -0.031718322279867685 0.006372207784456113 0.09221554016118635
1616 -0.01931324042903213 -0.10516489496734084 0.08584218284043221
6070 0.08189382126043757 0.0338710521926724 0.03357238072642383
1007 0.15296950279669524 -0.06445516427657796 -0.04865470210246351
17379 0.03512162900456191 0.04751932168896394 0.07383038424365736
16549 -0.04645408654781136 -0.11478057450328367 -0.030947269898067693
15619 0.07975001170489246 -0.05020137040185112 -0.0335904225256609
15372 0.012279154985969747 -0.07755261081136106 0.006040150180172282
14812 -0.08864837201401218 0.029407464036020597 -0.14355140223518886
1618 -0.11571763229939239 0.01589151955572503 0.0038086019670473493
1627 -0.11154137173437537 0.11553924383601703 0.05879392064434147
14218 0.039350485928179774 -0.1077488918330455 0.012274343669541232
1558 -0.051882297313838074 0.06356165241761405 0.12039000542147271
1611 0.051464033830812356 0.07632609495217618 0.044620477896581856
10621 0.004980967553088342 -0.04160543831737381 -0.019825062845473522
13719 0.006998604868523119 0.004972674734806063 -0.02219490754798205
15109 -0.13310670933821736 -0.06737745716658484 -0.12200148065582211
15686 0.08588802678982789 -0.047225154058143544 0.10332149917357861
14864 -0.08624940590990653 0.15048180027913347 -0.12311299049768601
16501 0.18015155236614597 0.08112639461227099 0.008932616512052953
16572 -0.049250664349415677 0.12548311487050445 -0.05587979215778452
17459 -0.10393738252193267 0.010792595079187235 0.17932621728018522
15794 -0.09571576044118535 0.049809291358926214 -0.037610007370934256
949 -0.030758778114613465 -0.1074681450557122 -0.16820506919825348
998 0.027987196647577442 -0.015652074927403455 0.05242739686205557
1574 0.04878392657049224 0.04327027252481748 0.0977484481653691
1601 0.02569757672998145 0.0012515495659571139 0.04387664412071636
17080 -0.05730076187270117 -0.04513973733066058 -0.014558191335238536
16083 0.12302291632165804 0.21993850980916446 0.037565140118734984
16188 -0.01328721275196445 -0.024689034426120676 0.1470563433364571
637 -0.07196780158913188 0.10581846040764017 0.006598968616238203
17105 -0.1338825252765008 0.038689043326941716 0.0026493725961327643
16225 0.06207258260144258 0.11322666477897185 -0.03376838725780708
16704 -0.03151596264964638 -0.07189784184776499 0.026919540505012628
14900 0.03870877303418312 0.010468428162305192 0.010414409465762182
17169 0.008497717810116375 -0.1039646920213931 0.07554881313214121
17628 0.014751292969190276 0.11319987305141233 -0.08361606977480583

Bonds

1 1 92 94
2 2 92 102
3 170 92 124
4 171 92 126
5 172 92 128
6 173 92 130
7 198 92 100
8 205 92 93
9 1 111 113
10 196 111 118
11 213 111 112
12 1 109 111
13 194 109 115
14 195 109 118
15 206 109 110
16 211 104 106
17 210 104 105
18 1 107 109
19 189 107 113
20 190 107 115
21 191 107 118
22 192 107 120
23 193 107 124
24 206 107 108
25 211 8 9
26 1 118 120
27 2 118 126
28 198 118 124
29 209 118 119
30 1 124 126
31 198 124 128
32 209 124 125
33 215 121 122
34 215 121 123
35 211 105 106
36 1 100 102
37 178 100 118
38 179 100 120
39 180 100 124
40 181 100 126
41 182 100 128
42 198 100 107
43 209 100 101
44 1 102 107
45 183 102 111
46 184 102 113
47 185 102 115
48 186 102 118
49 187 102 120
50 188 102 124
51 200 102 103
52 210 103 104
53 210 103 105
54 216 122 123
55 202 30 31
56 219 98 99
57 205 130 131
58 1 19 21
59 69 19 25
60 70 19 27
61 71 19 29
62 72 19 32
63 73 19 87
64 74 19 92
65 75 19 124
66 76 19 126
67 77 19 128
68 78 19 130
69 204 19 20
70 1 128 130
71 209 128 129
72 217 95 96
73 220 95 98
74 1 126 128
75 214 126 127
76 1 22 25
77 87 22 29
78 88 22 128
79 89 22 130
80 201 22 23
81 1 21 22
82 79 21 27
83 80 21 29
84 81 21 32
85 82 21 86
86 83 21 87
87 84 21 126
88 85 21 128
89 86 21 130
90 1 115 118
91 201 115 116
92 1 113 115
93 197 113 120
94 209 113 114
95 202 11 12
96 202 116 117
97 1 5 10
98 16 5 35
99 17 5 37
100 18 5 39
101 19 5 41
102 20 5 43
103 21 5 55
104 22 5 113
105 23 5 115
106 24 5 118
107 25 5 120
108 200 5 6
109 1 10 13
110 26 10 33
111 27 10 35
112 28 10 37
113 29 10 39
114 30 10 107
115 31 10 113
116 32 10 115
117 33 10 118
118 34 10 120
119 35 10 124
120 201 10 11
121 210 6 7
122 210 6 8
123 1 13 15
124 36 13 32
125 37 13 33
126 38 13 35
127 39 13 37
128 40 13 39
129 41 13 64
130 42 13 115
131 43 13 118
132 44 13 120
133 45 13 124
134 46 13 126
135 203 13 14
136 1 35 37
137 96 35 64
138 97 35 120
139 209 35 36
140 1 120 124
141 2 120 128
142 198 120 126
143 207 120 121
144 211 7 9
145 210 7 8
146 1 33 35
147 205 33 34
148 1 32 33
149 95 32 126
150 1 15 17
151 47 15 21
152 48 15 29
153 49 15 32
154 50 15 33
155 51 15 35
156 52 15 100
157 53 15 118
158 54 15 120
159 55 15 124
160 56 15 126
161 57 15 128
162 212 15 16
163 1 29 32
164 201 29 30
165 1 17 19
166 58 17 22
167 59 17 27
168 60 17 29
169 61 17 32
170 62 17 33
171 63 17 35
172 64 17 87
173 65 17 120
174 66 17 124
175 67 17 126
176 68 17 128
177 203 17 18
178 1 25 27
179 90 25 84
180 91 25 86
181 209 25 26
182 202 23 24
183 1 27 29
184 92 27 84
185 93 27 86
186 94 27 87
187 203 27 28
188 1 3 5
189 8 3 37
190 9 3 39
191 10 3 41
192 11 3 43
193 12 3 45
194 13 3 113
195 14 3 115
196 15 3 118
197 209 3 4
198 1 94 100
199 2 94 107
200 174 94 120
201 175 94 124
202 176 94 126
203 177 94 128
204 198 94 102
205 208 94 95
206 1 91 92
207 167 91 126
208 168 91 128
209 169 91 130
210 112 47 53
211 113 47 55
212 114 47 57
213 206 47 48
214 222 47 49
215 115 49 55
216 116 49 57
217 117 49 59
218 213 49 50
219 223 49 51
220 202 60 61
221 121 53 59
222 122 53 62
223 123 53 64
224 209 53 54
225 223 53 55
226 118 51 57
227 119 51 59
228 120 51 62
229 213 51 52
230 223 51 53
231 127 57 64
232 128 57 68
233 129 57 71
234 130 57 100
235 205 57 58
236 223 57 59
237 131 59 68
238 132 59 71
239 133 59 73
240 201 59 60
241 223 59 62
242 202 69 70
243 140 68 78
244 141 68 80
245 142 68 82
246 143 68 87
247 144 68 89
248 201 68 69
249 223 68 71
250 218 96 99
251 221 96 98
252 1 84 86
253 204 84 85
254 1 86 87
255 1 89 91
256 164 89 126
257 165 89 128
258 166 89 130
259 206 89 90
260 1 87 89
261 160 87 92
262 161 87 126
263 162 87 128
264 163 87 130
265 214 87 88
266 1 43 45
267 105 43 49
268 106 43 51
269 107 43 53
270 108 43 55
271 213 43 44
272 1 45 47
273 109 45 51
274 110 45 53
275 111 45 55
276 214 45 46
277 134 62 71
278 135 62 73
279 136 62 78
280 214 62 63
281 223 62 64
282 215 65 66
283 215 65 67
284 1 39 41
285 98 39 55
286 99 39 62
287 100 39 64
288 209 39 40
289 124 55 62
290 125 55 64
291 126 55 68
292 213 55 56
293 223 55 57
294 148 73 82
295 149 73 84
296 150 73 86
297 151 73 87
298 200 73 74
299 223 73 78
300 211 75 77
301 210 75 76
302 145 71 80
303 146 71 82
304 147 71 87
305 205 71 72
306 223 71 73
307 211 76 77
308 152 78 84
309 153 78 86
310 154 78 87
311 155 78 89
312 213 78 79
313 223 78 80
314 216 66 67
315 137 64 73
316 138 64 78
317 139 64 80
318 207 64 65
319 223 64 68
320 210 74 75
321 210 74 76
322 1 82 84
323 159 82 87
324 206 82 83
325 156 80 86
326 157 80 87
327 158 80 89
328 204 80 81
329 222 80 82
330 1 1 3
331 3 1 39
332 4 1 41
333 5 1 43
334 6 1 45
335 7 1 47
336 199 1 2
337 1 41 43
338 101 41 47
339 102 41 53
340 103 41 55
341 104 41 62
342 205 41 42
343 1 37 39
344 209 37 38

Angles

1 1 91 92 94
2 3 109 111 113
3 3 107 109 111
4 3 102 107 109
5 3 115 118 120
6 5 120 124 126
7 5 94 100 102
8 5 100 102 107
9 4 17 19 21
10 4 126 128 130
11 5 124 126 128
12 4 21 22 25
13 4 19 21 22
14 3 113 115 118
15 3 111 113 115
16 5 3 5 10
17 4 5 10 13
18 4 10 13 15
19 4 33 35 37
20 5 118 120 124
21 4 32 33 35
22 4 29 32 33
23 4 13 15 17
24 4 27 29 32
25 4 15 17 19
26 4 22 25 27
27 4 25 27 29
28 4 1 3 5
29 5 92 94 100
30 4 89 91 92
31 1 45 47 49
32 1 47 49 51
33 2 51 53 55
34 2 49 51 53
35 2 55 57 59
36 2 57 59 62
37 2 64 68 71
38 3 82 84 86
39 3 84 86 87
40 4 87 89 91
41 3 86 87 89
42 4 41 43 45
43 4 43 45 47
44 2 59 62 64
45 5 37 39 41
46 2 53 55 57
47 2 71 73 78
48 2 68 71 73
49 2 73 78 80
50 2 62 64 68
51 3 80 82 84
52 3 78 80 82
53 4 39 41 43
54 4 35 37 39

Dihedrals

1 2 106 104 105 103
2 3 99 98 96 95
3 2 9 7 8 6
4 1 51 53 55 57
5 1 49 51 53 55
6 1 55 57 59 62
7 1 57 59 62 64
8 1 64 68 71 73
9 1 59 62 64 68
10 1 53 55 57 59
11 1 71 73 78 80
12 2 77 75 76 74
13 1 68 71 73 78
14 1 62 64 68 71
